0 1
0 2
0 3
0 4
0 5
0 6
0 7
0 8
0 9
0 10
0 11
0 12
0 13
0 14
0 15
0 16
0 17
0 18
0 19
0 21
0 22
0 23
0 25
0 26
0 28
0 29
0 30
0 31
0 33
0 34
0 36
0 37
0 39
0 43
0 46
0 49
0 51
0 52
0 53
0 55
0 56
0 57
0 60
0 61
0 65
0 69
0 70
0 72
0 73
0 75
0 80
0 84
0 86
0 89
0 90
0 92
0 93
0 94
0 95
0 96
0 98
0 99
0 102
0 104
0 106
0 107
0 109
0 111
0 114
0 128
0 129
0 131
0 145
0 150
0 151
0 155
0 160
0 174
0 179
0 182
0 193
0 205
0 213
0 218
0 228
0 229
0 235
0 242
0 270
0 273
0 275
0 289
0 294
0 298
0 302
0 303
0 312
0 313
0 321
0 322
0 324
0 328
0 331
0 334
0 336
0 339
0 341
0 344
0 355
0 358
0 364
0 365
0 366
0 367
0 368
0 372
0 374
0 389
0 390
0 395
0 396
0 412
0 414
0 431
0 434
0 437
0 439
0 447
0 458
0 459
0 468
0 478
0 491
0 492
0 494
0 496
0 524
0 525
0 529
0 531
0 533
0 535
0 536
0 551
0 552
0 566
0 568
0 581
0 587
0 592
0 603
0 604
0 614
0 653
0 656
0 658
0 663
0 670
0 678
0 686
0 687
0 691
0 704
0 730
0 737
0 738
0 742
0 749
0 760
0 767
0 793
0 808
0 810
0 816
0 821
0 824
0 825
0 826
0 832
0 834
0 842
0 844
0 847
0 878
0 885
0 917
0 928
0 936
0 953
0 969
0 993
0 1007
0 1016
0 1018
0 1042
0 1045
0 1055
0 1070
0 1078
0 1085
0 1094
0 1097
0 1102
0 1111
0 1113
0 1116
0 1131
0 1146
0 1163
0 1204
0 1207
0 1220
0 1232
0 1236
0 1245
0 1270
0 1271
0 1290
0 1295
0 1314
0 1319
0 1349
0 1386
0 1393
0 1401
0 1406
0 1426
0 1437
0 1443
0 1445
0 1459
0 1473
0 1492
0 1522
0 1523
0 1529
0 1532
0 1535
0 1546
0 1553
0 1570
0 1571
0 1594
0 1624
0 1634
0 1663
0 1673
0 1682
0 1683
0 1735
0 1749
0 1764
0 1780
0 1788
0 1794
0 1823
0 1826
0 1833
0 1875
0 1912
0 1927
0 1932
0 1935
0 1945
0 1955
0 1999
0 2019
0 2038
0 2042
0 2047
0 2055
0 2065
0 2076
0 2084
0 2101
0 2107
0 2112
0 2120
0 2127
0 2130
0 2151
0 2188
0 2195
0 2212
0 2238
0 2245
0 2247
0 2249
0 2262
0 2263
0 2267
0 2270
0 2278
0 2284
0 2308
0 2357
0 2364
0 2377
0 2416
0 2426
0 2438
0 2514
0 2536
0 2545
0 2551
0 2569
0 2600
0 2622
0 2624
0 2646
0 2647
0 2659
0 2670
0 2848
0 2855
0 2873
0 2882
0 2885
0 2905
0 2915
0 2920
0 2940
0 2956
0 2971
0 2975
0 2980
0 3002
0 3019
0 3066
0 3078
0 3098
0 3100
0 3115
0 3141
0 3145
0 3150
0 3169
0 3201
0 3220
0 3229
0 3247
0 3266
0 3271
0 3275
0 3281
0 3313
0 3369
0 3373
0 3404
0 3436
0 3463
0 3471
0 3488
0 3502
0 3505
0 3544
0 3545
0 3557
0 3616
0 3618
0 3652
0 3666
0 3668
0 3702
0 3706
0 3728
0 3736
0 3794
0 3818
0 3833
0 3849
0 3877
0 3882
0 3909
0 3940
0 3957
0 4027
0 4054
0 4079
0 4113
0 4141
0 4186
0 4190
0 4199
0 4233
0 4258
0 4260
0 4281
0 4291
0 4299
0 4305
0 4326
0 4372
0 4394
0 4418
0 4504
0 4528
0 4530
0 4552
0 4612
0 4619
0 4634
0 4660
0 4670
0 4673
0 4698
0 4708
0 4739
0 4768
0 4769
0 4784
0 4808
0 4853
0 4885
0 4893
0 4913
0 4951
0 4954
0 4971
0 5030
0 5040
0 5068
0 5096
0 5099
0 5106
0 5109
0 5200
0 5203
0 5207
0 5209
0 5216
0 5249
0 5272
0 5273
0 5281
0 5357
0 5387
0 5396
0 5413
0 5424
0 5449
0 5457
0 5484
0 5495
0 5520
0 5522
0 5588
0 5608
0 5615
0 5631
0 5675
0 5678
0 5748
0 5802
0 5815
0 5854
0 5865
0 5874
0 5876
0 5891
0 5904
0 5961
0 6005
0 6040
0 6046
0 6059
0 6090
0 6092
0 6114
0 6116
0 6127
0 6155
0 6162
0 6212
0 6238
0 6250
0 6313
0 6317
0 6361
0 6405
0 6408
0 6426
0 6428
0 6453
0 6490
0 6498
0 6502
0 6513
0 6529
0 6543
0 6599
0 6608
0 6609
0 6641
0 6664
0 6688
0 6737
0 6760
0 6762
0 6765
0 6815
0 6831
0 6840
0 6882
0 6895
0 6950
0 6982
0 7012
0 7040
0 7041
0 7063
0 7079
0 7082
0 7122
0 7143
0 7168
0 7225
0 7274
0 7275
0 7294
0 7401
0 7479
0 7505
0 7518
0 7552
0 7599
0 7603
0 7677
0 7682
0 7702
0 7737
0 7738
0 7745
0 7770
0 7796
0 7801
0 7808
0 7831
0 7843
0 7868
0 7886
0 7947
0 7975
0 7980
0 7992
0 8009
0 8041
0 8046
0 8055
0 8082
0 8117
0 8121
0 8169
0 8170
0 8264
0 8274
0 8276
0 8307
0 8313
0 8325
0 8338
0 8371
0 8374
0 8384
0 8399
0 8406
0 8442
0 8474
0 8487
0 8504
0 8507
0 8520
0 8571
0 8615
0 8637
0 8752
0 8766
0 8768
0 8877
0 8947
0 8952
0 8963
0 8978
0 9082
0 9136
0 9179
0 9222
0 9249
0 9281
0 9309
0 9318
0 9320
0 9322
0 9340
0 9342
0 9348
0 9349
0 9350
0 9355
0 9391
0 9414
0 9489
0 9499
0 9505
0 9533
0 9579
0 9628
0 9669
0 9705
0 9744
0 9760
0 9783
0 9792
0 9804
0 9855
0 9861
0 9862
0 9883
0 9891
0 9915
0 9936
0 9952
1 11
1 13
1 14
1 18
1 19
1 22
1 23
1 29
1 30
1 31
1 38
1 39
1 63
1 89
1 118
1 136
1 142
1 153
1 157
1 164
1 172
1 176
1 178
1 186
1 188
1 229
1 237
1 275
1 278
1 286
1 289
1 293
1 306
1 315
1 338
1 345
1 358
1 376
1 383
1 384
1 387
1 399
1 408
1 428
1 433
1 476
1 487
1 501
1 512
1 573
1 576
1 585
1 660
1 671
1 681
1 710
1 725
1 763
1 804
1 818
1 899
1 1029
1 1099
1 1113
1 1127
1 1129
1 1139
1 1193
1 1231
1 1247
1 1251
1 1267
1 1269
1 1303
1 1350
1 1420
1 1567
1 1575
1 1634
1 1660
1 1791
1 1824
1 1882
1 1923
1 1936
1 2027
1 2030
1 2051
1 2054
1 2117
1 2177
1 2194
1 2266
1 2295
1 2302
1 2314
1 2389
1 2437
1 2542
1 2629
1 2631
1 2659
1 2669
1 2754
1 2788
1 2804
1 2808
1 2886
1 2916
1 2936
1 2980
1 3047
1 3081
1 3165
1 3213
1 3240
1 3241
1 3251
1 3261
1 3280
1 3307
1 3312
1 3387
1 3400
1 3441
1 3449
1 3536
1 3566
1 3605
1 3695
1 3712
1 3726
1 3851
1 3917
1 3977
1 3978
1 4146
1 4224
1 4261
1 4263
1 4370
1 4385
1 4458
1 4639
1 4663
1 4834
1 4945
1 5019
1 5176
1 5280
1 5304
1 5436
1 5624
1 5687
1 5813
1 5896
1 5930
1 6284
1 6289
1 6381
1 6504
1 6611
1 6919
1 6942
1 6960
1 7174
1 7378
1 7388
1 7447
1 7528
1 7553
1 7634
1 7645
1 7704
1 7756
1 7773
1 7779
1 7792
1 7832
1 7938
1 8129
1 8336
1 8524
1 8603
1 8699
1 8873
1 9039
1 9083
1 9156
1 9290
1 9502
1 9586
1 9621
1 9715
1 9721
1 9851
2 11
2 12
2 13
2 14
2 15
2 16
2 18
2 19
2 20
2 25
2 28
2 29
2 41
2 47
2 55
2 58
2 65
2 66
2 70
2 79
2 91
2 110
2 113
2 118
2 128
2 132
2 165
2 179
2 188
2 214
2 220
2 229
2 265
2 287
2 297
2 351
2 366
2 371
2 394
2 461
2 497
2 560
2 563
2 589
2 623
2 628
2 655
2 658
2 706
2 714
2 732
2 759
2 789
2 796
2 811
2 814
2 862
2 956
2 992
2 1020
2 1065
2 1069
2 1071
2 1075
2 1083
2 1110
2 1129
2 1138
2 1160
2 1286
2 1299
2 1325
2 1354
2 1428
2 1436
2 1454
2 1465
2 1518
2 1558
2 1592
2 1649
2 1696
2 1773
2 1778
2 1814
2 1823
2 1901
2 1931
2 1938
2 1940
2 2029
2 2040
2 2148
2 2153
2 2161
2 2166
2 2201
2 2253
2 2283
2 2404
2 2429
2 2430
2 2441
2 2458
2 2501
2 2542
2 2543
2 2592
2 2719
2 2723
2 2724
2 2746
2 2769
2 2830
2 2853
2 2895
2 2915
2 2951
2 2977
2 3072
2 3106
2 3121
2 3142
2 3195
2 3355
2 3362
2 3405
2 3426
2 3532
2 3603
2 3614
2 3671
2 3763
2 3874
2 3970
2 4029
2 4158
2 4272
2 4348
2 4384
2 4512
2 4681
2 4683
2 4736
2 4817
2 4944
2 4966
2 5022
2 5070
2 5085
2 5277
2 5285
2 5360
2 5386
2 5414
2 5580
2 5592
2 5741
2 5756
2 5996
2 6001
2 6032
2 6100
2 6113
2 6226
2 6263
2 6334
2 6345
2 6600
2 6609
2 6611
2 6744
2 6786
2 6840
2 6947
2 7131
2 7225
2 7313
2 7358
2 7372
2 7552
2 7707
2 7939
2 7958
2 7971
2 8010
2 8093
2 8278
2 8292
2 8331
2 8357
2 8506
2 8564
2 8707
2 8774
2 8797
2 8808
2 8820
2 8836
2 8996
2 9115
2 9185
2 9459
2 9532
2 9575
2 9597
2 9625
2 9666
2 9681
2 9861
3 11
3 12
3 13
3 14
3 15
3 19
3 20
3 21
3 37
3 38
3 44
3 45
3 46
3 55
3 59
3 64
3 65
3 67
3 78
3 83
3 85
3 90
3 104
3 112
3 119
3 122
3 146
3 148
3 149
3 183
3 196
3 236
3 239
3 248
3 284
3 295
3 298
3 301
3 304
3 321
3 322
3 332
3 351
3 386
3 409
3 432
3 437
3 535
3 628
3 682
3 701
3 731
3 751
3 790
3 862
3 880
3 906
3 949
3 951
3 953
3 990
3 1072
3 1074
3 1103
3 1219
3 1224
3 1253
3 1254
3 1334
3 1350
3 1354
3 1386
3 1442
3 1464
3 1477
3 1481
3 1510
3 1562
3 1631
3 1673
3 1726
3 1747
3 1816
3 1884
3 1902
3 1973
3 1974
3 1978
3 1981
3 1997
3 2003
3 2005
3 2019
3 2044
3 2057
3 2125
3 2132
3 2182
3 2190
3 2207
3 2269
3 2311
3 2403
3 2519
3 2565
3 2599
3 2608
3 2618
3 2641
3 2646
3 2679
3 2851
3 2991
3 3051
3 3066
3 3093
3 3102
3 3162
3 3205
3 3234
3 3341
3 3364
3 3372
3 3383
3 3471
3 3507
3 3604
3 3690
3 3733
3 3754
3 3771
3 3877
3 3879
3 3881
3 3912
3 4022
3 4056
3 4085
3 4193
3 4203
3 4268
3 4448
3 4501
3 4530
3 4576
3 4633
3 4642
3 4665
3 4727
3 4760
3 4770
3 4812
3 4826
3 4832
3 4833
3 4867
3 4877
3 4898
3 4992
3 5023
3 5044
3 5169
3 5297
3 5299
3 5302
3 5363
3 5600
3 5643
3 5672
3 5698
3 5775
3 5786
3 5967
3 5973
3 6079
3 6205
3 6215
3 6266
3 6467
3 6614
3 6623
3 6718
3 6748
3 6768
3 6799
3 7064
3 7088
3 7108
3 7198
3 7350
3 7443
3 7448
3 7504
3 7553
3 7588
3 7659
3 7759
3 7845
3 7864
3 7868
3 7873
3 7893
3 8245
3 8246
3 8420
3 8446
3 8448
3 8604
3 8628
3 8648
3 8743
3 8821
3 8864
3 8922
3 8933
3 9029
3 9041
3 9078
3 9261
3 9289
3 9307
3 9381
3 9386
3 9432
3 9440
3 9483
3 9601
3 9687
3 9691
3 9706
3 9768
3 9832
3 9853
3 9872
3 9915
3 9930
3 9934
4 11
4 12
4 13
4 16
4 30
4 40
4 87
4 130
4 142
4 197
4 249
4 399
4 551
4 658
4 707
4 723
4 729
4 976
4 986
4 1410
4 1737
4 1786
4 1809
4 1891
4 2024
4 2420
4 2461
4 2468
4 2488
4 2525
4 2539
4 2547
4 2685
4 2686
4 2738
4 2903
4 3068
4 3086
4 3195
4 3250
4 3307
4 3352
4 3569
4 3587
4 3597
4 3693
4 3764
4 3783
4 3978
4 4037
4 4088
4 4153
4 4282
4 4468
4 4511
4 4679
4 5485
4 6764
4 6933
4 6991
4 7003
4 7173
4 7849
4 8095
4 8194
4 8487
4 8638
4 8807
4 9094
4 9453
4 9527
4 9548
4 9991
5 11
5 12
5 13
5 15
5 16
5 18
5 25
5 28
5 38
5 39
5 45
5 46
5 49
5 58
5 69
5 79
5 83
5 84
5 92
5 116
5 141
5 146
5 161
5 184
5 189
5 208
5 241
5 252
5 255
5 260
5 277
5 299
5 353
5 363
5 395
5 403
5 430
5 456
5 510
5 530
5 554
5 575
5 577
5 667
5 672
5 695
5 706
5 748
5 758
5 793
5 818
5 822
5 840
5 861
5 912
5 944
5 1028
5 1041
5 1051
5 1064
5 1102
5 1148
5 1174
5 1179
5 1208
5 1232
5 1387
5 1415
5 1438
5 1439
5 1533
5 1556
5 1593
5 1662
5 1870
5 1933
5 2009
5 2061
5 2069
5 2118
5 2186
5 2229
5 2237
5 2325
5 2336
5 2421
5 2514
5 2647
5 2727
5 2758
5 2920
5 2995
5 3045
5 3046
5 3202
5 3206
5 3445
5 3464
5 3528
5 3561
5 3569
5 3584
5 3613
5 3616
5 3628
5 3649
5 3713
5 3834
5 3855
5 3888
5 3985
5 3987
5 4045
5 4155
5 4253
5 4273
5 4355
5 4439
5 4465
5 4594
5 4605
5 4658
5 4849
5 4872
5 5153
5 5376
5 5391
5 5744
5 5755
5 5846
5 5859
5 5899
5 6055
5 6080
5 6092
5 6315
5 6334
5 6476
5 6493
5 6539
5 6588
5 6600
5 6721
5 6801
5 6931
5 6947
5 6962
5 6974
5 7011
5 7238
5 7329
5 7528
5 7543
5 7742
5 7745
5 7944
5 8278
5 8643
5 8651
5 8716
5 8850
5 8975
5 9182
5 9372
5 9570
5 9640
5 9685
5 9717
5 9763
5 9808
5 9820
5 9885
5 9990
6 22
6 23
6 38
6 81
6 167
6 177
6 199
6 282
6 286
6 294
6 479
6 535
6 677
6 839
6 919
6 984
6 1221
6 1393
6 1532
6 1674
6 1715
6 1927
6 2026
6 2228
6 2746
6 2852
6 3012
6 3041
6 3295
6 3324
6 3487
6 3668
6 3819
6 4397
6 4494
6 5588
6 5703
6 6567
6 7100
6 8049
6 8182
6 8324
6 8506
6 9499
6 9688
7 11
7 12
7 17
7 21
7 35
7 36
7 43
7 58
7 65
7 69
7 88
7 91
7 117
7 127
7 137
7 151
7 160
7 169
7 250
7 261
7 388
7 392
7 433
7 541
7 554
7 711
7 761
7 783
7 848
7 943
7 948
7 960
7 974
7 1017
7 1062
7 1096
7 1155
7 1288
7 1322
7 1341
7 1372
7 1541
7 1607
7 1614
7 1636
7 1711
7 2010
7 2149
7 2245
7 2253
7 2295
7 2401
7 2413
7 2428
7 2589
7 2594
7 2787
7 2897
7 2900
7 3086
7 3208
7 3404
7 3844
7 3984
7 4017
7 4293
7 4342
7 4424
7 4464
7 4501
7 4570
7 4580
7 4633
7 4858
7 4886
7 5213
7 5251
7 5280
7 5335
7 5487
7 5513
7 5690
7 6073
7 6185
7 6429
7 6526
7 6550
7 6701
7 7288
7 7444
7 7544
7 7952
7 8005
7 8494
7 8666
7 8771
7 8834
7 9014
7 9197
7 9210
7 9243
7 9432
7 9452
7 9523
7 9617
7 9963
8 11
8 12
8 13
8 14
8 15
8 17
8 19
8 22
8 23
8 24
8 26
8 30
8 35
8 42
8 44
8 45
8 68
8 82
8 83
8 85
8 89
8 92
8 101
8 126
8 156
8 184
8 191
8 194
8 197
8 198
8 202
8 221
8 222
8 254
8 283
8 307
8 325
8 329
8 335
8 363
8 373
8 394
8 422
8 433
8 442
8 474
8 539
8 555
8 620
8 644
8 699
8 751
8 768
8 787
8 891
8 906
8 919
8 952
8 965
8 1023
8 1072
8 1130
8 1134
8 1142
8 1172
8 1195
8 1234
8 1271
8 1276
8 1289
8 1320
8 1351
8 1352
8 1377
8 1423
8 1427
8 1463
8 1474
8 1513
8 1515
8 1528
8 1557
8 1601
8 1607
8 1618
8 1625
8 1651
8 1663
8 1707
8 1713
8 1793
8 1798
8 1845
8 1884
8 1905
8 1918
8 1935
8 2016
8 2040
8 2058
8 2108
8 2122
8 2125
8 2135
8 2164
8 2170
8 2211
8 2273
8 2283
8 2297
8 2317
8 2347
8 2366
8 2385
8 2403
8 2412
8 2450
8 2525
8 2667
8 2680
8 2688
8 2712
8 2747
8 2777
8 2923
8 2969
8 2987
8 3026
8 3042
8 3160
8 3192
8 3199
8 3231
8 3235
8 3320
8 3358
8 3376
8 3418
8 3504
8 3555
8 3640
8 3663
8 3838
8 3926
8 4142
8 4318
8 4320
8 4372
8 4472
8 4480
8 4587
8 4602
8 4709
8 4764
8 4796
8 4851
8 4884
8 4893
8 4936
8 4959
8 4963
8 5008
8 5018
8 5036
8 5048
8 5081
8 5235
8 5246
8 5310
8 5446
8 5554
8 5653
8 5672
8 5693
8 5703
8 5726
8 5802
8 5822
8 6169
8 6178
8 6184
8 6338
8 6373
8 6398
8 6431
8 6539
8 6557
8 6622
8 6670
8 6729
8 6867
8 6885
8 6978
8 7125
8 7128
8 7147
8 7277
8 7296
8 7338
8 7387
8 7525
8 7537
8 7586
8 7691
8 7711
8 7779
8 7781
8 7783
8 7917
8 7951
8 8048
8 8052
8 8079
8 8090
8 8164
8 8272
8 8303
8 8353
8 8542
8 8555
8 8908
8 9236
8 9413
8 9478
8 9481
8 9495
8 9547
8 9592
8 9599
8 9614
8 9735
8 9820
8 9888
9 11
9 12
9 14
9 15
9 17
9 18
9 21
9 22
9 25
9 28
9 35
9 38
9 41
9 49
9 56
9 70
9 76
9 78
9 79
9 81
9 88
9 89
9 91
9 96
9 98
9 104
9 106
9 109
9 114
9 117
9 121
9 129
9 130
9 137
9 150
9 155
9 156
9 163
9 166
9 186
9 189
9 193
9 200
9 202
9 203
9 209
9 228
9 229
9 243
9 252
9 254
9 265
9 268
9 269
9 281
9 321
9 360
9 362
9 369
9 392
9 401
9 411
9 418
9 431
9 440
9 445
9 447
9 494
9 496
9 514
9 557
9 561
9 563
9 608
9 643
9 684
9 737
9 745
9 762
9 791
9 820
9 892
9 939
9 998
9 1065
9 1079
9 1099
9 1104
9 1115
9 1121
9 1125
9 1151
9 1168
9 1183
9 1203
9 1207
9 1245
9 1334
9 1447
9 1449
9 1457
9 1459
9 1493
9 1501
9 1551
9 1557
9 1605
9 1624
9 1661
9 1667
9 1736
9 1766
9 1792
9 1889
9 1916
9 1979
9 2050
9 2068
9 2090
9 2148
9 2208
9 2234
9 2248
9 2249
9 2271
9 2344
9 2479
9 2518
9 2526
9 2568
9 2608
9 2636
9 2676
9 2690
9 2750
9 2770
9 2773
9 2785
9 2857
9 2960
9 2974
9 3024
9 3032
9 3122
9 3191
9 3245
9 3329
9 3359
9 3391
9 3466
9 3574
9 3609
9 3696
9 3699
9 3715
9 3770
9 3814
9 3830
9 3835
9 3847
9 3869
9 3981
9 4060
9 4151
9 4243
9 4352
9 4379
9 4394
9 4439
9 4495
9 4506
9 4520
9 4668
9 4672
9 4683
9 4723
9 4799
9 4818
9 4868
9 4892
9 5130
9 5227
9 5310
9 5344
9 5347
9 5625
9 5695
9 5722
9 5743
9 5940
9 5970
9 5972
9 5979
9 6027
9 6037
9 6077
9 6158
9 6160
9 6226
9 6310
9 6317
9 6321
9 6417
9 6423
9 6472
9 6501
9 6505
9 6934
9 6970
9 7038
9 7039
9 7047
9 7056
9 7271
9 7332
9 7348
9 7495
9 7601
9 7672
9 7687
9 7689
9 7715
9 7762
9 7917
9 7937
9 8240
9 8244
9 8278
9 8408
9 8435
9 8516
9 8541
9 8610
9 8612
9 8646
9 8740
9 8760
9 8785
9 8849
9 8904
9 9046
9 9114
9 9145
9 9232
9 9363
9 9374
9 9387
9 9477
9 9665
9 9671
9 9679
9 9940
9 9983
10 11
10 12
10 13
10 14
10 16
10 17
10 19
10 21
10 23
10 27
10 28
10 31
10 32
10 33
10 34
10 37
10 38
10 39
10 47
10 48
10 52
10 53
10 55
10 72
10 91
10 93
10 96
10 99
10 101
10 109
10 112
10 123
10 146
10 175
10 181
10 195
10 201
10 238
10 247
10 250
10 252
10 262
10 286
10 299
10 304
10 319
10 320
10 358
10 377
10 379
10 448
10 466
10 472
10 488
10 513
10 523
10 531
10 551
10 568
10 574
10 629
10 654
10 669
10 682
10 703
10 719
10 727
10 754
10 763
10 774
10 809
10 840
10 854
10 896
10 908
10 913
10 915
10 969
10 989
10 1015
10 1050
10 1058
10 1065
10 1121
10 1142
10 1154
10 1166
10 1167
10 1174
10 1266
10 1277
10 1291
10 1365
10 1366
10 1377
10 1381
10 1545
10 1550
10 1566
10 1569
10 1620
10 1677
10 1728
10 1750
10 1773
10 1806
10 1848
10 1937
10 1941
10 1966
10 2071
10 2074
10 2100
10 2123
10 2129
10 2157
10 2164
10 2184
10 2246
10 2250
10 2347
10 2351
10 2375
10 2379
10 2427
10 2435
10 2455
10 2465
10 2471
10 2477
10 2549
10 2570
10 2575
10 2596
10 2607
10 2628
10 2630
10 2665
10 2684
10 2706
10 2712
10 2724
10 2782
10 2857
10 2890
10 2897
10 2986
10 3031
10 3043
10 3064
10 3067
10 3107
10 3110
10 3129
10 3194
10 3225
10 3300
10 3325
10 3353
10 3366
10 3455
10 3476
10 3573
10 3713
10 3750
10 3790
10 3805
10 3869
10 3944
10 3982
10 4025
10 4032
10 4042
10 4057
10 4076
10 4089
10 4100
10 4107
10 4115
10 4140
10 4180
10 4214
10 4232
10 4241
10 4245
10 4276
10 4330
10 4361
10 4395
10 4404
10 4427
10 4449
10 4525
10 4538
10 4559
10 4627
10 4704
10 4731
10 4761
10 4971
10 5025
10 5076
10 5087
10 5106
10 5108
10 5223
10 5240
10 5262
10 5321
10 5341
10 5342
10 5438
10 5442
10 5456
10 5463
10 5483
10 5903
10 5906
10 5926
10 5937
10 5958
10 5991
10 6003
10 6020
10 6032
10 6039
10 6061
10 6090
10 6094
10 6150
10 6181
10 6243
10 6500
10 6511
10 6542
10 6578
10 6613
10 6658
10 6710
10 6720
10 6909
10 6924
10 6984
10 7059
10 7105
10 7158
10 7221
10 7227
10 7235
10 7249
10 7364
10 7379
10 7381
10 7436
10 7616
10 7693
10 7713
10 7782
10 7806
10 7809
10 7837
10 7855
10 7928
10 7934
10 8229
10 8275
10 8367
10 8583
10 8653
10 8723
10 8915
10 8981
10 9075
10 9095
10 9097
10 9316
10 9364
10 9370
10 9498
10 9595
10 9673
10 9701
10 9802
10 9829
11 12
11 13
11 14
11 15
11 16
11 17
11 18
11 19
11 20
11 21
11 23
11 24
11 25
11 26
11 28
11 29
11 30
11 31
11 32
11 33
11 34
11 36
11 37
11 39
11 42
11 43
11 44
11 47
11 50
11 53
11 55
11 57
11 65
11 71
11 74
11 81
11 82
11 85
11 92
11 94
11 103
11 108
11 110
11 115
11 118
11 123
11 127
11 128
11 132
11 139
11 142
11 143
11 144
11 146
11 147
11 148
11 151
11 153
11 159
11 165
11 181
11 186
11 194
11 196
11 200
11 203
11 215
11 218
11 238
11 240
11 253
11 255
11 256
11 263
11 281
11 291
11 292
11 301
11 304
11 307
11 321
11 329
11 334
11 340
11 342
11 343
11 345
11 349
11 356
11 373
11 376
11 377
11 399
11 401
11 403
11 415
11 417
11 424
11 425
11 427
11 429
11 431
11 435
11 457
11 458
11 463
11 464
11 470
11 474
11 483
11 487
11 489
11 490
11 497
11 503
11 515
11 517
11 536
11 540
11 557
11 582
11 583
11 587
11 607
11 620
11 621
11 635
11 651
11 659
11 668
11 693
11 704
11 724
11 725
11 753
11 755
11 758
11 765
11 767
11 772
11 775
11 810
11 811
11 815
11 819
11 820
11 840
11 841
11 843
11 865
11 889
11 891
11 930
11 938
11 950
11 952
11 958
11 965
11 977
11 995
11 1001
11 1007
11 1025
11 1034
11 1039
11 1055
11 1059
11 1082
11 1108
11 1123
11 1129
11 1168
11 1170
11 1188
11 1205
11 1207
11 1252
11 1253
11 1254
11 1261
11 1263
11 1278
11 1290
11 1303
11 1305
11 1308
11 1311
11 1318
11 1358
11 1366
11 1376
11 1407
11 1440
11 1443
11 1448
11 1466
11 1472
11 1496
11 1549
11 1572
11 1575
11 1578
11 1649
11 1709
11 1717
11 1770
11 1773
11 1806
11 1808
11 1831
11 1853
11 1862
11 1864
11 1868
11 1869
11 1878
11 1886
11 1908
11 2013
11 2035
11 2058
11 2079
11 2081
11 2084
11 2090
11 2101
11 2112
11 2155
11 2175
11 2191
11 2200
11 2202
11 2208
11 2214
11 2223
11 2238
11 2264
11 2270
11 2284
11 2289
11 2307
11 2333
11 2350
11 2361
11 2369
11 2373
11 2377
11 2403
11 2435
11 2451
11 2471
11 2498
11 2514
11 2544
11 2562
11 2576
11 2607
11 2618
11 2645
11 2665
11 2674
11 2688
11 2698
11 2699
11 2700
11 2705
11 2745
11 2847
11 2879
11 2884
11 2910
11 2933
11 2937
11 2961
11 2966
11 2980
11 2988
11 2998
11 3012
11 3023
11 3052
11 3059
11 3064
11 3065
11 3092
11 3128
11 3133
11 3142
11 3143
11 3151
11 3173
11 3185
11 3221
11 3225
11 3273
11 3281
11 3343
11 3344
11 3385
11 3387
11 3465
11 3502
11 3592
11 3613
11 3621
11 3644
11 3666
11 3726
11 3727
11 3736
11 3739
11 3741
11 3810
11 3832
11 3855
11 3865
11 3891
11 3958
11 3968
11 3990
11 4010
11 4025
11 4040
11 4047
11 4048
11 4143
11 4168
11 4238
11 4245
11 4287
11 4310
11 4331
11 4335
11 4336
11 4346
11 4351
11 4402
11 4417
11 4463
11 4477
11 4488
11 4489
11 4492
11 4525
11 4532
11 4555
11 4613
11 4624
11 4632
11 4647
11 4648
11 4683
11 4703
11 4704
11 4715
11 4724
11 4757
11 4812
11 4830
11 4834
11 4869
11 4891
11 4894
11 4943
11 4947
11 5002
11 5012
11 5031
11 5053
11 5120
11 5136
11 5175
11 5183
11 5224
11 5236
11 5238
11 5277
11 5339
11 5343
11 5354
11 5368
11 5387
11 5402
11 5409
11 5417
11 5421
11 5508
11 5539
11 5544
11 5551
11 5570
11 5584
11 5601
11 5611
11 5644
11 5663
11 5699
11 5728
11 5755
11 5766
11 5824
11 5834
11 5836
11 5872
11 5893
11 5922
11 5940
11 5999
11 6019
11 6028
11 6032
11 6069
11 6070
11 6073
11 6125
11 6305
11 6355
11 6366
11 6378
11 6390
11 6405
11 6408
11 6433
11 6524
11 6530
11 6601
11 6641
11 6680
11 6787
11 6788
11 6811
11 6881
11 6882
11 6897
11 6901
11 6961
11 6965
11 7015
11 7083
11 7101
11 7131
11 7153
11 7158
11 7190
11 7208
11 7225
11 7249
11 7252
11 7269
11 7281
11 7286
11 7288
11 7289
11 7295
11 7337
11 7418
11 7572
11 7578
11 7600
11 7617
11 7624
11 7716
11 7737
11 7843
11 7864
11 7875
11 7877
11 7887
11 7962
11 7973
11 7982
11 8000
11 8014
11 8078
11 8084
11 8094
11 8127
11 8157
11 8184
11 8251
11 8264
11 8395
11 8408
11 8432
11 8516
11 8650
11 8689
11 8773
11 8788
11 8789
11 8799
11 8819
11 8974
11 9012
11 9020
11 9034
11 9064
11 9102
11 9181
11 9207
11 9209
11 9232
11 9291
11 9454
11 9528
11 9547
11 9680
11 9737
11 9746
11 9753
11 9787
11 9795
11 9822
11 9950
11 9992
12 13
12 14
12 15
12 16
12 17
12 20
12 21
12 22
12 24
12 25
12 26
12 29
12 31
12 32
12 33
12 34
12 35
12 48
12 49
12 50
12 53
12 59
12 60
12 61
12 62
12 63
12 67
12 71
12 80
12 81
12 83
12 86
12 87
12 89
12 90
12 95
12 96
12 97
12 99
12 103
12 108
12 114
12 121
12 132
12 135
12 137
12 138
12 140
12 144
12 161
12 164
12 169
12 185
12 189
12 190
12 192
12 198
12 206
12 211
12 213
12 215
12 228
12 231
12 232
12 237
12 242
12 258
12 262
12 270
12 272
12 277
12 290
12 311
12 327
12 328
12 333
12 338
12 356
12 357
12 362
12 365
12 371
12 376
12 382
12 392
12 393
12 405
12 425
12 429
12 437
12 452
12 496
12 504
12 505
12 518
12 520
12 528
12 532
12 542
12 552
12 554
12 574
12 582
12 584
12 594
12 604
12 616
12 621
12 622
12 634
12 640
12 654
12 656
12 657
12 669
12 672
12 698
12 712
12 731
12 743
12 748
12 750
12 754
12 763
12 779
12 785
12 792
12 828
12 841
12 860
12 865
12 871
12 927
12 939
12 944
12 945
12 951
12 978
12 981
12 994
12 1038
12 1062
12 1063
12 1079
12 1081
12 1100
12 1111
12 1128
12 1158
12 1162
12 1165
12 1173
12 1191
12 1197
12 1216
12 1252
12 1260
12 1268
12 1290
12 1305
12 1337
12 1344
12 1355
12 1370
12 1419
12 1423
12 1444
12 1449
12 1480
12 1523
12 1530
12 1560
12 1602
12 1646
12 1669
12 1675
12 1678
12 1704
12 1715
12 1749
12 1754
12 1756
12 1787
12 1824
12 1825
12 1846
12 1862
12 1899
12 1923
12 1938
12 1969
12 2019
12 2025
12 2070
12 2099
12 2111
12 2134
12 2139
12 2184
12 2195
12 2223
12 2231
12 2293
12 2298
12 2352
12 2363
12 2410
12 2449
12 2465
12 2476
12 2577
12 2597
12 2651
12 2653
12 2680
12 2684
12 2688
12 2772
12 2787
12 2805
12 2821
12 2844
12 2863
12 2867
12 2886
12 2888
12 2891
12 2894
12 2985
12 3010
12 3021
12 3120
12 3124
12 3133
12 3138
12 3148
12 3174
12 3203
12 3208
12 3217
12 3223
12 3260
12 3313
12 3356
12 3379
12 3424
12 3486
12 3516
12 3532
12 3653
12 3682
12 3749
12 3798
12 3982
12 4005
12 4098
12 4116
12 4278
12 4321
12 4363
12 4405
12 4415
12 4435
12 4525
12 4534
12 4584
12 4711
12 4746
12 4783
12 4786
12 4884
12 4940
12 4962
12 4985
12 5063
12 5177
12 5189
12 5196
12 5271
12 5275
12 5326
12 5346
12 5391
12 5435
12 5469
12 5531
12 5540
12 5564
12 5609
12 5631
12 5747
12 5779
12 5786
12 5790
12 5811
12 5856
12 5870
12 5940
12 6004
12 6035
12 6044
12 6076
12 6117
12 6134
12 6191
12 6306
12 6332
12 6427
12 6432
12 6448
12 6465
12 6547
12 6550
12 6605
12 6609
12 6631
12 6652
12 6653
12 6700
12 6708
12 6719
12 6751
12 6752
12 6773
12 6805
12 6844
12 6906
12 6909
12 6936
12 6971
12 7051
12 7053
12 7086
12 7133
12 7150
12 7219
12 7249
12 7367
12 7389
12 7403
12 7577
12 7585
12 7601
12 7724
12 7751
12 7792
12 7836
12 7898
12 7956
12 7965
12 7978
12 7986
12 8001
12 8079
12 8135
12 8149
12 8180
12 8192
12 8226
12 8393
12 8404
12 8442
12 8463
12 8477
12 8490
12 8521
12 8577
12 8594
12 8625
12 8639
12 8723
12 8923
12 8969
12 9022
12 9033
12 9097
12 9154
12 9172
12 9227
12 9277
12 9290
12 9295
12 9414
12 9445
12 9466
12 9509
12 9561
12 9563
12 9666
12 9759
12 9776
12 9848
12 9994
13 14
13 15
13 16
13 17
13 18
13 19
13 20
13 22
13 24
13 25
13 26
13 27
13 33
13 34
13 35
13 36
13 38
13 39
13 41
13 44
13 50
13 54
13 56
13 57
13 60
13 66
13 69
13 76
13 83
13 90
13 94
13 98
13 105
13 107
13 108
13 111
13 117
13 132
13 133
13 140
13 147
13 149
13 154
13 166
13 169
13 172
13 173
13 178
13 182
13 196
13 200
13 205
13 206
13 218
13 238
13 260
13 264
13 269
13 271
13 276
13 280
13 295
13 315
13 324
13 335
13 350
13 359
13 366
13 381
13 384
13 416
13 437
13 443
13 444
13 445
13 446
13 447
13 472
13 473
13 495
13 502
13 513
13 519
13 525
13 526
13 537
13 538
13 540
13 545
13 556
13 573
13 579
13 582
13 583
13 590
13 610
13 631
13 641
13 665
13 666
13 674
13 675
13 680
13 685
13 704
13 733
13 748
13 773
13 780
13 786
13 809
13 810
13 821
13 823
13 853
13 856
13 914
13 921
13 932
13 946
13 962
13 964
13 971
13 994
13 1002
13 1044
13 1051
13 1053
13 1104
13 1124
13 1157
13 1166
13 1174
13 1177
13 1205
13 1209
13 1218
13 1219
13 1236
13 1244
13 1251
13 1277
13 1303
13 1307
13 1334
13 1421
13 1422
13 1442
13 1455
13 1458
13 1459
13 1487
13 1488
13 1490
13 1496
13 1536
13 1588
13 1602
13 1603
13 1633
13 1700
13 1703
13 1754
13 1778
13 1788
13 1799
13 1800
13 1818
13 1870
13 1880
13 1889
13 1906
13 1934
13 1969
13 1990
13 2008
13 2017
13 2045
13 2086
13 2117
13 2123
13 2135
13 2174
13 2187
13 2248
13 2258
13 2294
13 2303
13 2381
13 2384
13 2463
13 2464
13 2472
13 2508
13 2547
13 2574
13 2583
13 2625
13 2638
13 2657
13 2694
13 2707
13 2711
13 2735
13 2737
13 2798
13 2818
13 2850
13 2853
13 2863
13 2930
13 2934
13 2956
13 2964
13 2976
13 2984
13 3003
13 3006
13 3014
13 3035
13 3038
13 3039
13 3058
13 3066
13 3155
13 3186
13 3217
13 3229
13 3263
13 3272
13 3315
13 3327
13 3411
13 3421
13 3424
13 3549
13 3561
13 3591
13 3596
13 3743
13 3784
13 3791
13 3815
13 3819
13 3838
13 3857
13 3877
13 3924
13 3936
13 3995
13 4021
13 4023
13 4042
13 4044
13 4055
13 4059
13 4080
13 4087
13 4088
13 4166
13 4204
13 4207
13 4274
13 4294
13 4355
13 4379
13 4442
13 4451
13 4473
13 4475
13 4503
13 4514
13 4522
13 4528
13 4556
13 4656
13 4662
13 4667
13 4683
13 4692
13 4750
13 4835
13 4836
13 4844
13 4860
13 4861
13 4917
13 4979
13 5055
13 5069
13 5072
13 5085
13 5093
13 5104
13 5115
13 5118
13 5145
13 5163
13 5222
13 5316
13 5330
13 5336
13 5454
13 5456
13 5505
13 5520
13 5582
13 5688
13 5697
13 5732
13 5741
13 5748
13 5804
13 5850
13 5853
13 5909
13 5927
13 5998
13 6031
13 6110
13 6113
13 6128
13 6150
13 6167
13 6190
13 6246
13 6274
13 6298
13 6380
13 6399
13 6411
13 6447
13 6450
13 6456
13 6561
13 6699
13 6707
13 6726
13 6756
13 6763
13 6785
13 6821
13 6871
13 6902
13 6935
13 6978
13 7022
13 7151
13 7158
13 7207
13 7209
13 7221
13 7246
13 7272
13 7307
13 7352
13 7424
13 7469
13 7484
13 7507
13 7540
13 7594
13 7643
13 7679
13 7713
13 7741
13 7746
13 7810
13 7844
13 7863
13 7865
13 7892
13 8109
13 8174
13 8187
13 8208
13 8215
13 8248
13 8292
13 8331
13 8359
13 8405
13 8422
13 8474
13 8510
13 8578
13 8660
13 8693
13 8710
13 8819
13 8855
13 8974
13 9001
13 9045
13 9065
13 9152
13 9163
13 9272
13 9327
13 9396
13 9402
13 9570
13 9572
13 9620
13 9626
13 9632
13 9662
13 9764
13 9810
13 8961
14 15
14 16
14 17
14 18
14 20
14 23
14 24
14 26
14 27
14 28
14 30
14 32
14 35
14 37
14 49
14 52
14 56
14 65
14 76
14 77
14 78
14 80
14 86
14 87
14 105
14 107
14 111
14 115
14 122
14 125
14 127
14 139
14 161
14 167
14 175
14 176
14 206
14 234
14 240
14 243
14 246
14 254
14 272
14 276
14 279
14 292
14 304
14 314
14 315
14 318
14 332
14 337
14 341
14 343
14 345
14 353
14 378
14 385
14 395
14 404
14 405
14 407
14 425
14 453
14 459
14 478
14 484
14 494
14 505
14 535
14 544
14 549
14 565
14 572
14 576
14 583
14 638
14 650
14 655
14 661
14 723
14 755
14 768
14 770
14 798
14 876
14 909
14 934
14 964
14 994
14 1049
14 1060
14 1073
14 1091
14 1104
14 1159
14 1179
14 1182
14 1217
14 1220
14 1252
14 1278
14 1305
14 1337
14 1340
14 1348
14 1375
14 1400
14 1425
14 1496
14 1521
14 1523
14 1528
14 1533
14 1539
14 1565
14 1669
14 1703
14 1707
14 1731
14 1783
14 1817
14 1823
14 1843
14 1844
14 1857
14 1859
14 1873
14 1933
14 1946
14 1952
14 1968
14 1980
14 2043
14 2049
14 2115
14 2131
14 2144
14 2199
14 2251
14 2263
14 2266
14 2295
14 2354
14 2357
14 2372
14 2426
14 2429
14 2440
14 2517
14 2594
14 2604
14 2621
14 2627
14 2640
14 2696
14 2700
14 2714
14 2791
14 2846
14 2850
14 2854
14 2902
14 2908
14 2911
14 2917
14 2986
14 2997
14 3013
14 3108
14 3137
14 3174
14 3178
14 3227
14 3233
14 3249
14 3267
14 3310
14 3342
14 3399
14 3401
14 3451
14 3455
14 3522
14 3570
14 3571
14 3625
14 3631
14 3792
14 3799
14 3820
14 3834
14 3842
14 3869
14 3953
14 3975
14 4017
14 4054
14 4055
14 4075
14 4176
14 4198
14 4205
14 4286
14 4336
14 4393
14 4427
14 4437
14 4486
14 4552
14 4566
14 4601
14 4662
14 4681
14 4686
14 4696
14 4699
14 4737
14 4770
14 4904
14 4922
14 4952
14 4967
14 5032
14 5034
14 5084
14 5116
14 5164
14 5173
14 5193
14 5266
14 5277
14 5338
14 5352
14 5374
14 5453
14 5461
14 5471
14 5503
14 5524
14 5607
14 5797
14 5961
14 6035
14 6187
14 6194
14 6271
14 6277
14 6332
14 6419
14 6499
14 6597
14 6638
14 6673
14 6677
14 6887
14 6890
14 6909
14 7002
14 7035
14 7053
14 7062
14 7067
14 7092
14 7114
14 7229
14 7240
14 7250
14 7264
14 7326
14 7339
14 7465
14 7640
14 7663
14 7679
14 7692
14 7727
14 7730
14 7736
14 7748
14 7749
14 7776
14 7858
14 7904
14 7923
14 7960
14 8000
14 8057
14 8094
14 8194
14 8228
14 8242
14 8295
14 8485
14 8591
14 8597
14 8607
14 8645
14 8648
14 8868
14 9087
14 9142
14 9172
14 9187
14 9283
14 9356
14 9395
14 9407
14 9446
14 9508
14 9557
14 9559
14 9582
14 9628
14 9644
14 9649
14 9651
14 9736
14 9743
14 9855
14 9877
14 9896
14 9956
14 9957
15 16
15 17
15 20
15 21
15 24
15 27
15 29
15 31
15 36
15 39
15 40
15 41
15 42
15 43
15 48
15 57
15 59
15 63
15 67
15 74
15 78
15 83
15 91
15 95
15 99
15 113
15 115
15 129
15 131
15 140
15 141
15 142
15 159
15 165
15 173
15 174
15 176
15 187
15 189
15 191
15 204
15 209
15 223
15 234
15 240
15 249
15 257
15 275
15 283
15 292
15 347
15 354
15 357
15 455
15 501
15 508
15 509
15 525
15 526
15 550
15 557
15 567
15 569
15 570
15 578
15 597
15 600
15 617
15 623
15 636
15 640
15 652
15 654
15 673
15 691
15 744
15 767
15 768
15 784
15 803
15 810
15 844
15 859
15 864
15 890
15 924
15 935
15 939
15 944
15 1009
15 1024
15 1026
15 1028
15 1035
15 1046
15 1055
15 1067
15 1134
15 1152
15 1189
15 1194
15 1243
15 1245
15 1251
15 1253
15 1275
15 1312
15 1314
15 1341
15 1351
15 1367
15 1384
15 1403
15 1412
15 1420
15 1475
15 1482
15 1533
15 1587
15 1609
15 1625
15 1627
15 1672
15 1702
15 1704
15 1795
15 1810
15 1831
15 1844
15 1905
15 1911
15 1958
15 1960
15 1971
15 1974
15 2046
15 2054
15 2113
15 2206
15 2216
15 2242
15 2255
15 2283
15 2290
15 2307
15 2339
15 2386
15 2411
15 2440
15 2452
15 2465
15 2500
15 2519
15 2579
15 2622
15 2661
15 2671
15 2672
15 2699
15 2712
15 2771
15 2797
15 2865
15 2884
15 2898
15 2941
15 2999
15 3016
15 3127
15 3137
15 3148
15 3224
15 3293
15 3306
15 3310
15 3312
15 3351
15 3355
15 3371
15 3417
15 3466
15 3521
15 3539
15 3540
15 3658
15 3662
15 3720
15 3723
15 3732
15 3860
15 3871
15 4002
15 4111
15 4119
15 4194
15 4240
15 4265
15 4273
15 4316
15 4317
15 4337
15 4410
15 4427
15 4538
15 4544
15 4550
15 4585
15 4626
15 4775
15 4797
15 4800
15 4857
15 4861
15 4965
15 5001
15 5021
15 5036
15 5051
15 5095
15 5145
15 5190
15 5212
15 5274
15 5290
15 5311
15 5345
15 5351
15 5432
15 5439
15 5454
15 5461
15 5550
15 5556
15 5583
15 5610
15 5683
15 5767
15 5842
15 5884
15 5980
15 6102
15 6198
15 6202
15 6213
15 6270
15 6277
15 6339
15 6344
15 6392
15 6407
15 6438
15 6443
15 6479
15 6540
15 6561
15 6564
15 6587
15 6664
15 6692
15 6704
15 6721
15 6731
15 6735
15 6784
15 6790
15 6809
15 6862
15 6922
15 6994
15 7106
15 7159
15 7173
15 7220
15 7261
15 7264
15 7301
15 7411
15 7412
15 7435
15 7462
15 7515
15 7535
15 7569
15 7717
15 7734
15 7894
15 7921
15 7939
15 7948
15 7977
15 8052
15 8072
15 8408
15 8494
15 8676
15 8678
15 8752
15 8934
15 8939
15 9058
15 9118
15 9291
15 9351
15 9401
15 9606
15 9689
15 9703
15 9704
15 9747
15 9852
15 9858
15 9875
16 18
16 19
16 20
16 21
16 22
16 26
16 30
16 32
16 34
16 35
16 36
16 37
16 40
16 42
16 45
16 50
16 51
16 53
16 55
16 65
16 67
16 68
16 71
16 76
16 80
16 86
16 88
16 99
16 111
16 113
16 116
16 119
16 122
16 125
16 126
16 127
16 130
16 131
16 134
16 137
16 143
16 144
16 148
16 150
16 151
16 158
16 162
16 170
16 174
16 175
16 198
16 212
16 214
16 221
16 222
16 226
16 227
16 238
16 241
16 244
16 251
16 267
16 272
16 290
16 299
16 301
16 302
16 306
16 309
16 322
16 325
16 330
16 331
16 346
16 347
16 348
16 362
16 363
16 411
16 416
16 422
16 425
16 426
16 436
16 445
16 446
16 450
16 454
16 458
16 465
16 475
16 502
16 518
16 522
16 548
16 562
16 569
16 570
16 575
16 587
16 606
16 624
16 650
16 659
16 665
16 669
16 687
16 706
16 721
16 737
16 744
16 767
16 787
16 798
16 812
16 821
16 825
16 844
16 849
16 863
16 873
16 889
16 901
16 908
16 971
16 998
16 1001
16 1006
16 1007
16 1048
16 1050
16 1055
16 1067
16 1115
16 1120
16 1126
16 1164
16 1178
16 1180
16 1197
16 1198
16 1231
16 1282
16 1293
16 1298
16 1321
16 1360
16 1401
16 1418
16 1420
16 1506
16 1530
16 1538
16 1575
16 1583
16 1593
16 1637
16 1644
16 1687
16 1699
16 1700
16 1704
16 1712
16 1715
16 1727
16 1746
16 1804
16 1812
16 1832
16 1848
16 1889
16 1891
16 2003
16 2033
16 2053
16 2075
16 2089
16 2115
16 2152
16 2168
16 2194
16 2220
16 2223
16 2264
16 2336
16 2406
16 2423
16 2424
16 2425
16 2468
16 2531
16 2558
16 2570
16 2585
16 2674
16 2690
16 2773
16 2814
16 2831
16 2838
16 2844
16 2871
16 2910
16 2946
16 2948
16 2981
16 3011
16 3014
16 3051
16 3127
16 3151
16 3164
16 3214
16 3244
16 3277
16 3325
16 3473
16 3523
16 3545
16 3553
16 3566
16 3593
16 3606
16 3655
16 3714
16 3748
16 3765
16 3770
16 3811
16 3877
16 3915
16 3935
16 3944
16 3946
16 3955
16 3979
16 4045
16 4109
16 4153
16 4184
16 4244
16 4268
16 4308
16 4441
16 4453
16 4467
16 4650
16 4678
16 4691
16 4713
16 4769
16 4801
16 4827
16 4850
16 4882
16 4885
16 4914
16 4930
16 4944
16 4987
16 5045
16 5083
16 5091
16 5217
16 5234
16 5276
16 5284
16 5328
16 5333
16 5375
16 5459
16 5472
16 5477
16 5514
16 5543
16 5591
16 5643
16 5775
16 5786
16 5807
16 5857
16 5885
16 5903
16 5928
16 5932
16 5939
16 5968
16 5980
16 5992
16 6018
16 6045
16 6057
16 6073
16 6076
16 6125
16 6238
16 6243
16 6326
16 6407
16 6418
16 6426
16 6459
16 6473
16 6527
16 6592
16 6602
16 6610
16 6740
16 6742
16 6758
16 6834
16 6850
16 6915
16 6925
16 6949
16 7026
16 7075
16 7119
16 7127
16 7216
16 7320
16 7346
16 7354
16 7356
16 7435
16 7455
16 7477
16 7478
16 7490
16 7519
16 7583
16 7642
16 7688
16 7696
16 7820
16 7825
16 7854
16 7891
16 7897
16 7906
16 8003
16 8006
16 8020
16 8022
16 8025
16 8089
16 8113
16 8182
16 8210
16 8215
16 8226
16 8240
16 8241
16 8272
16 8282
16 8322
16 8349
16 8383
16 8384
16 8397
16 8400
16 8481
16 8507
16 8516
16 8560
16 8581
16 8666
16 8691
16 8744
16 8779
16 8781
16 8925
16 8955
16 8973
16 9020
16 9097
16 9141
16 9163
16 9221
16 9320
16 9322
16 9346
16 9505
16 9519
16 9535
16 9574
16 9617
16 9626
16 9652
16 9723
16 9742
16 9754
16 9816
16 9896
16 9987
16 1146
17 18
17 19
17 21
17 24
17 27
17 31
17 32
17 33
17 36
17 37
17 38
17 45
17 48
17 49
17 51
17 58
17 67
17 75
17 77
17 80
17 84
17 96
17 100
17 109
17 112
17 113
17 123
17 125
17 130
17 156
17 159
17 168
17 176
17 177
17 185
17 188
17 197
17 215
17 220
17 226
17 229
17 233
17 280
17 287
17 305
17 317
17 324
17 338
17 339
17 341
17 348
17 354
17 376
17 378
17 381
17 387
17 416
17 432
17 449
17 452
17 453
17 459
17 493
17 526
17 541
17 552
17 561
17 573
17 603
17 606
17 619
17 639
17 649
17 673
17 688
17 703
17 705
17 728
17 734
17 749
17 801
17 813
17 978
17 982
17 996
17 1014
17 1021
17 1033
17 1034
17 1056
17 1092
17 1145
17 1146
17 1211
17 1217
17 1241
17 1247
17 1261
17 1287
17 1441
17 1451
17 1455
17 1488
17 1499
17 1576
17 1582
17 1599
17 1622
17 1706
17 1745
17 1794
17 1844
17 1912
17 1951
17 1958
17 1966
17 1969
17 1971
17 1981
17 2024
17 2025
17 2115
17 2137
17 2146
17 2168
17 2226
17 2235
17 2244
17 2248
17 2283
17 2284
17 2296
17 2304
17 2308
17 2309
17 2363
17 2401
17 2407
17 2409
17 2462
17 2467
17 2477
17 2481
17 2506
17 2530
17 2561
17 2604
17 2625
17 2644
17 2749
17 2775
17 2779
17 2807
17 2851
17 2914
17 2956
17 2987
17 2990
17 3087
17 3136
17 3236
17 3264
17 3346
17 3350
17 3383
17 3460
17 3588
17 3592
17 3607
17 3645
17 3689
17 3738
17 3799
17 3834
17 3863
17 3914
17 3961
17 3966
17 4145
17 4227
17 4265
17 4356
17 4364
17 4395
17 4425
17 4519
17 4548
17 4592
17 4704
17 4747
17 4752
17 4770
17 4859
17 4998
17 5052
17 5056
17 5081
17 5146
17 5161
17 5520
17 5570
17 5607
17 5616
17 5625
17 5637
17 5795
17 5880
17 5940
17 6148
17 6335
17 6336
17 6409
17 6432
17 6471
17 6493
17 6520
17 6558
17 6574
17 6623
17 6633
17 6668
17 6671
17 6676
17 6798
17 6802
17 6822
17 6976
17 6978
17 7006
17 7018
17 7059
17 7062
17 7235
17 7253
17 7259
17 7322
17 7467
17 7481
17 7553
17 7572
17 7630
17 7668
17 7731
17 7773
17 7777
17 7815
17 7863
17 7901
17 8024
17 8122
17 8232
17 8264
17 8590
17 8647
17 8684
17 8695
17 8722
17 8784
17 8824
17 9081
17 9099
17 9144
17 9261
17 9343
17 9364
17 9426
17 9612
17 9771
17 9833
17 9858
17 9912
17 9914
17 9932
17 9959
18 20
18 22
18 23
18 24
18 25
18 26
18 30
18 32
18 34
18 41
18 42
18 43
18 44
18 46
18 48
18 50
18 57
18 63
18 66
18 68
18 70
18 73
18 81
18 82
18 95
18 97
18 110
18 115
18 126
18 131
18 136
18 146
18 148
18 153
18 170
18 182
18 184
18 188
18 193
18 194
18 195
18 213
18 215
18 234
18 246
18 249
18 261
18 268
18 270
18 274
18 281
18 284
18 313
18 317
18 337
18 349
18 353
18 370
18 380
18 397
18 417
18 419
18 426
18 436
18 440
18 448
18 456
18 467
18 478
18 501
18 508
18 514
18 528
18 533
18 537
18 538
18 559
18 568
18 579
18 595
18 602
18 604
18 605
18 639
18 662
18 682
18 693
18 705
18 707
18 711
18 720
18 737
18 747
18 755
18 757
18 763
18 776
18 779
18 781
18 828
18 833
18 851
18 866
18 887
18 894
18 903
18 923
18 939
18 941
18 954
18 997
18 1000
18 1031
18 1051
18 1056
18 1062
18 1097
18 1098
18 1099
18 1106
18 1156
18 1165
18 1191
18 1224
18 1229
18 1260
18 1261
18 1266
18 1281
18 1285
18 1295
18 1311
18 1335
18 1340
18 1354
18 1362
18 1408
18 1410
18 1419
18 1436
18 1438
18 1445
18 1457
18 1470
18 1474
18 1476
18 1524
18 1525
18 1541
18 1549
18 1558
18 1562
18 1571
18 1586
18 1595
18 1597
18 1600
18 1623
18 1627
18 1640
18 1644
18 1666
18 1672
18 1696
18 1765
18 1817
18 1837
18 1887
18 1898
18 1899
18 1901
18 1916
18 1918
18 1925
18 1928
18 1937
18 1942
18 1978
18 2023
18 2035
18 2056
18 2059
18 2099
18 2128
18 2148
18 2167
18 2168
18 2227
18 2235
18 2273
18 2283
18 2297
18 2342
18 2355
18 2376
18 2412
18 2436
18 2455
18 2475
18 2495
18 2539
18 2544
18 2549
18 2565
18 2566
18 2610
18 2625
18 2627
18 2635
18 2655
18 2676
18 2681
18 2710
18 2730
18 2739
18 2743
18 2781
18 2798
18 2813
18 2842
18 2854
18 2914
18 2915
18 2934
18 2954
18 2961
18 2982
18 3002
18 3020
18 3029
18 3049
18 3060
18 3097
18 3107
18 3154
18 3203
18 3217
18 3293
18 3303
18 3309
18 3311
18 3335
18 3337
18 3359
18 3365
18 3419
18 3442
18 3504
18 3526
18 3562
18 3571
18 3574
18 3595
18 3612
18 3633
18 3648
18 3658
18 3680
18 3694
18 3710
18 3740
18 3808
18 3829
18 3884
18 3889
18 3936
18 3947
18 3987
18 3988
18 3998
18 4097
18 4122
18 4205
18 4225
18 4247
18 4286
18 4318
18 4336
18 4369
18 4433
18 4474
18 4510
18 4553
18 4568
18 4584
18 4614
18 4677
18 4678
18 4698
18 4713
18 4717
18 4754
18 4757
18 4779
18 4825
18 4876
18 4910
18 4944
18 4961
18 4967
18 4975
18 5017
18 5126
18 5153
18 5162
18 5164
18 5268
18 5290
18 5322
18 5332
18 5349
18 5375
18 5406
18 5465
18 5495
18 5511
18 5540
18 5541
18 5543
18 5597
18 5681
18 5691
18 5699
18 5702
18 5868
18 5964
18 6100
18 6117
18 6155
18 6221
18 6301
18 6319
18 6337
18 6347
18 6477
18 6623
18 6635
18 6656
18 6657
18 6745
18 6823
18 6843
18 6854
18 6890
18 6891
18 6898
18 6932
18 6938
18 7007
18 7021
18 7082
18 7170
18 7175
18 7251
18 7257
18 7277
18 7335
18 7451
18 7464
18 7480
18 7524
18 7527
18 7529
18 7571
18 7596
18 7610
18 7665
18 7683
18 7697
18 7728
18 7736
18 7740
18 7792
18 7906
18 7941
18 7951
18 7989
18 7994
18 8087
18 8106
18 8151
18 8189
18 8272
18 8275
18 8292
18 8313
18 8349
18 8379
18 8417
18 8425
18 8634
18 8638
18 8749
18 8766
18 8774
18 8824
18 8837
18 8840
18 8851
18 8869
18 8909
18 9004
18 9124
18 9177
18 9204
18 9292
18 9309
18 9395
18 9464
18 9494
18 9544
18 9581
18 9641
18 9682
18 9691
18 9793
18 9807
18 9897
18 9964
19 20
19 26
19 40
19 43
19 45
19 50
19 74
19 98
19 128
19 136
19 152
19 180
19 190
19 211
19 223
19 249
19 317
19 339
19 365
19 378
19 414
19 431
19 435
19 447
19 450
19 463
19 464
19 478
19 542
19 548
19 556
19 567
19 588
19 680
19 691
19 711
19 732
19 737
19 760
19 799
19 837
19 865
19 904
19 915
19 958
19 970
19 991
19 1034
19 1047
19 1071
19 1108
19 1118
19 1125
19 1130
19 1164
19 1173
19 1185
19 1313
19 1379
19 1381
19 1415
19 1550
19 1582
19 1593
19 1608
19 1676
19 1779
19 1845
19 1886
19 1901
19 1978
19 2074
19 2097
19 2107
19 2141
19 2192
19 2276
19 2277
19 2306
19 2327
19 2505
19 2671
19 2737
19 2761
19 2952
19 2977
19 2998
19 3004
19 3098
19 3112
19 3155
19 3231
19 3257
19 3334
19 3337
19 3590
19 3636
19 3884
19 3904
19 3944
19 3945
19 4091
19 4115
19 4283
19 4315
19 4438
19 4521
19 4623
19 4634
19 4642
19 4672
19 4774
19 4798
19 4966
19 5029
19 5066
19 5080
19 5096
19 5182
19 5385
19 5414
19 5476
19 6072
19 6164
19 6182
19 6265
19 6503
19 6571
19 6824
19 6934
19 6967
19 7030
19 7153
19 7218
19 7433
19 7450
19 7712
19 7774
19 7780
19 7786
19 7854
19 7878
19 7885
19 7978
19 8034
19 8321
19 8383
19 8451
19 8512
19 8536
19 8712
19 8770
19 8984
19 9116
19 9398
19 9446
19 9769
19 9805
19 9889
19 9904
19 9916
20 23
20 24
20 27
20 29
20 32
20 36
20 37
20 47
20 58
20 59
20 69
20 79
20 93
20 97
20 100
20 102
20 104
20 110
20 126
20 130
20 132
20 135
20 138
20 143
20 153
20 159
20 161
20 164
20 173
20 175
20 182
20 191
20 194
20 210
20 227
20 230
20 259
20 260
20 286
20 288
20 309
20 310
20 339
20 342
20 344
20 346
20 355
20 365
20 380
20 388
20 391
20 418
20 435
20 439
20 447
20 481
20 517
20 576
20 595
20 639
20 645
20 680
20 696
20 706
20 723
20 741
20 757
20 764
20 775
20 785
20 806
20 832
20 860
20 872
20 900
20 932
20 993
20 995
20 1000
20 1024
20 1027
20 1049
20 1062
20 1069
20 1074
20 1125
20 1130
20 1134
20 1144
20 1164
20 1228
20 1241
20 1256
20 1318
20 1333
20 1357
20 1382
20 1393
20 1394
20 1405
20 1413
20 1426
20 1478
20 1496
20 1525
20 1568
20 1579
20 1611
20 1640
20 1655
20 1708
20 1728
20 1766
20 1769
20 1818
20 1832
20 1840
20 1912
20 1936
20 1953
20 1960
20 2136
20 2140
20 2150
20 2155
20 2169
20 2197
20 2231
20 2245
20 2250
20 2286
20 2291
20 2322
20 2355
20 2356
20 2368
20 2454
20 2460
20 2461
20 2506
20 2515
20 2537
20 2565
20 2566
20 2658
20 2683
20 2692
20 2694
20 2708
20 2715
20 2751
20 2810
20 2895
20 2959
20 3022
20 3029
20 3124
20 3157
20 3167
20 3180
20 3190
20 3210
20 3263
20 3317
20 3428
20 3453
20 3490
20 3500
20 3528
20 3536
20 3556
20 3583
20 3646
20 3676
20 3696
20 3725
20 3817
20 3841
20 3849
20 3923
20 3953
20 3974
20 3986
20 4200
20 4207
20 4262
20 4299
20 4377
20 4406
20 4418
20 4568
20 4594
20 4595
20 4613
20 4628
20 4718
20 4787
20 4788
20 4892
20 4946
20 4981
20 4991
20 5065
20 5079
20 5159
20 5187
20 5199
20 5204
20 5208
20 5212
20 5275
20 5410
20 5465
20 5496
20 5544
20 5558
20 5591
20 5593
20 5608
20 5620
20 5625
20 5726
20 5734
20 5839
20 5952
20 6103
20 6140
20 6303
20 6384
20 6409
20 6422
20 6431
20 6538
20 6550
20 6676
20 6697
20 6732
20 6755
20 6880
20 6917
20 7041
20 7051
20 7103
20 7144
20 7178
20 7181
20 7242
20 7252
20 7322
20 7376
20 7393
20 7425
20 7455
20 7456
20 7508
20 7569
20 7599
20 7600
20 7667
20 7711
20 7761
20 7908
20 7959
20 7971
20 8087
20 8113
20 8114
20 8163
20 8215
20 8265
20 8355
20 8370
20 8434
20 8447
20 8463
20 8594
20 8701
20 8735
20 8771
20 8801
20 8950
20 8988
20 9058
20 9092
20 9228
20 9372
20 9430
20 9456
20 9488
20 9513
20 9711
20 9768
20 9778
20 9861
20 9947
20 9949
21 22
21 23
21 25
21 26
21 27
21 31
21 40
21 46
21 47
21 49
21 50
21 51
21 58
21 60
21 63
21 66
21 67
21 72
21 73
21 78
21 80
21 86
21 93
21 94
21 97
21 99
21 101
21 105
21 117
21 118
21 121
21 124
21 132
21 133
21 141
21 150
21 151
21 153
21 156
21 159
21 160
21 161
21 162
21 166
21 167
21 192
21 195
21 207
21 213
21 215
21 217
21 222
21 225
21 235
21 243
21 255
21 256
21 268
21 278
21 284
21 296
21 306
21 333
21 353
21 354
21 371
21 376
21 386
21 390
21 393
21 406
21 448
21 449
21 474
21 479
21 486
21 520
21 527
21 528
21 536
21 542
21 545
21 549
21 569
21 571
21 575
21 591
21 596
21 626
21 637
21 640
21 657
21 664
21 685
21 687
21 688
21 689
21 696
21 723
21 725
21 747
21 761
21 773
21 788
21 796
21 801
21 816
21 824
21 832
21 847
21 857
21 864
21 872
21 898
21 920
21 973
21 1013
21 1048
21 1049
21 1068
21 1091
21 1101
21 1120
21 1122
21 1133
21 1169
21 1175
21 1206
21 1219
21 1230
21 1233
21 1246
21 1248
21 1261
21 1299
21 1309
21 1344
21 1345
21 1356
21 1375
21 1383
21 1395
21 1457
21 1459
21 1464
21 1500
21 1517
21 1557
21 1650
21 1673
21 1738
21 1759
21 1779
21 1798
21 1824
21 1918
21 1927
21 1930
21 1968
21 1972
21 2040
21 2086
21 2094
21 2102
21 2127
21 2129
21 2137
21 2205
21 2214
21 2226
21 2256
21 2347
21 2373
21 2398
21 2417
21 2419
21 2431
21 2438
21 2440
21 2485
21 2540
21 2545
21 2563
21 2574
21 2582
21 2593
21 2659
21 2668
21 2684
21 2699
21 2731
21 2756
21 2789
21 2820
21 2872
21 2877
21 2898
21 2926
21 2929
21 2960
21 2985
21 3001
21 3011
21 3035
21 3036
21 3059
21 3064
21 3093
21 3121
21 3125
21 3126
21 3133
21 3144
21 3150
21 3252
21 3305
21 3309
21 3336
21 3345
21 3402
21 3441
21 3447
21 3470
21 3679
21 3734
21 3766
21 3772
21 3780
21 3825
21 3850
21 3861
21 3942
21 3987
21 4081
21 4104
21 4132
21 4271
21 4283
21 4287
21 4323
21 4340
21 4344
21 4504
21 4555
21 4579
21 4636
21 4676
21 4704
21 4811
21 4854
21 4855
21 4885
21 4919
21 4969
21 5020
21 5025
21 5079
21 5176
21 5190
21 5207
21 5211
21 5221
21 5258
21 5309
21 5392
21 5396
21 5406
21 5432
21 5471
21 5527
21 5591
21 5599
21 5609
21 5611
21 5699
21 5750
21 5785
21 5826
21 5856
21 5875
21 5891
21 5946
21 5956
21 5976
21 5977
21 5981
21 6002
21 6061
21 6073
21 6138
21 6156
21 6205
21 6278
21 6309
21 6361
21 6423
21 6474
21 6519
21 6531
21 6553
21 6574
21 6583
21 6612
21 6652
21 6705
21 6769
21 6904
21 6997
21 7040
21 7087
21 7157
21 7185
21 7235
21 7269
21 7313
21 7370
21 7442
21 7445
21 7515
21 7579
21 7590
21 7601
21 7603
21 7656
21 7681
21 7683
21 7710
21 7715
21 7799
21 7804
21 7909
21 7994
21 7997
21 8002
21 8031
21 8120
21 8198
21 8238
21 8373
21 8409
21 8422
21 8476
21 8659
21 8701
21 8703
21 8733
21 8744
21 8835
21 8995
21 9073
21 9148
21 9169
21 9171
21 9221
21 9225
21 9435
21 9556
21 9577
21 9590
21 9699
21 9750
21 9769
21 9791
21 9812
21 9836
21 9869
21 9901
21 9928
21 9990
22 28
22 32
22 34
22 35
22 38
22 39
22 50
22 53
22 56
22 61
22 66
22 75
22 77
22 78
22 85
22 88
22 107
22 118
22 123
22 127
22 128
22 129
22 155
22 159
22 165
22 177
22 180
22 187
22 190
22 198
22 199
22 205
22 213
22 215
22 228
22 245
22 250
22 253
22 266
22 275
22 289
22 291
22 300
22 306
22 313
22 316
22 341
22 358
22 363
22 377
22 378
22 397
22 406
22 414
22 423
22 428
22 468
22 511
22 514
22 516
22 523
22 529
22 536
22 540
22 552
22 563
22 613
22 645
22 649
22 650
22 651
22 661
22 680
22 688
22 711
22 720
22 725
22 756
22 768
22 787
22 795
22 819
22 827
22 831
22 848
22 881
22 908
22 915
22 920
22 925
22 936
22 945
22 961
22 965
22 974
22 1007
22 1011
22 1012
22 1016
22 1032
22 1059
22 1084
22 1110
22 1134
22 1136
22 1140
22 1143
22 1150
22 1151
22 1188
22 1199
22 1212
22 1218
22 1247
22 1260
22 1285
22 1320
22 1336
22 1357
22 1369
22 1402
22 1405
22 1465
22 1507
22 1529
22 1545
22 1567
22 1578
22 1616
22 1635
22 1653
22 1681
22 1695
22 1713
22 1738
22 1740
22 1753
22 1777
22 1790
22 1791
22 1821
22 1822
22 2020
22 2036
22 2087
22 2092
22 2124
22 2130
22 2168
22 2208
22 2341
22 2350
22 2365
22 2397
22 2423
22 2469
22 2490
22 2529
22 2559
22 2597
22 2598
22 2645
22 2651
22 2675
22 2757
22 2791
22 2845
22 2848
22 2859
22 2869
22 2871
22 2988
22 2995
22 3017
22 3024
22 3114
22 3129
22 3165
22 3190
22 3252
22 3288
22 3324
22 3506
22 3511
22 3518
22 3535
22 3544
22 3560
22 3592
22 3595
22 3627
22 3631
22 3646
22 3736
22 3941
22 4058
22 4209
22 4251
22 4328
22 4402
22 4411
22 4461
22 4533
22 4544
22 4561
22 4599
22 4689
22 4734
22 4905
22 4989
22 5011
22 5016
22 5026
22 5056
22 5083
22 5101
22 5108
22 5121
22 5246
22 5270
22 5294
22 5359
22 5360
22 5361
22 5362
22 5411
22 5440
22 5485
22 5512
22 5521
22 5604
22 5710
22 5818
22 5835
22 5846
22 5863
22 5899
22 5908
22 5929
22 5960
22 6009
22 6039
22 6061
22 6075
22 6095
22 6105
22 6107
22 6218
22 6254
22 6272
22 6283
22 6305
22 6318
22 6419
22 6453
22 6467
22 6478
22 6483
22 6502
22 6525
22 6560
22 6769
22 6868
22 6942
22 6946
22 6958
22 7013
22 7090
22 7100
22 7172
22 7188
22 7214
22 7271
22 7283
22 7336
22 7387
22 7439
22 7456
22 7543
22 7544
22 7747
22 7774
22 7903
22 7969
22 7975
22 7988
22 8007
22 8043
22 8125
22 8215
22 8299
22 8308
22 8507
22 8510
22 8546
22 8607
22 8625
22 8635
22 8783
22 8795
22 8873
22 8897
22 8902
22 9070
22 9090
22 9096
22 9301
22 9371
22 9495
22 9626
22 9660
22 9716
22 9733
22 9843
22 9943
22 9989
23 24
23 25
23 27
23 28
23 30
23 32
23 33
23 34
23 39
23 40
23 42
23 48
23 50
23 51
23 57
23 62
23 63
23 66
23 67
23 77
23 94
23 95
23 101
23 105
23 110
23 112
23 133
23 136
23 143
23 145
23 147
23 153
23 155
23 163
23 164
23 180
23 181
23 183
23 184
23 193
23 194
23 197
23 201
23 204
23 209
23 220
23 236
23 254
23 255
23 270
23 276
23 296
23 297
23 298
23 302
23 305
23 309
23 312
23 359
23 365
23 373
23 376
23 399
23 411
23 434
23 444
23 450
23 465
23 485
23 494
23 521
23 538
23 549
23 565
23 576
23 587
23 612
23 617
23 631
23 642
23 648
23 678
23 679
23 683
23 703
23 710
23 723
23 733
23 750
23 755
23 757
23 778
23 820
23 824
23 861
23 867
23 884
23 893
23 900
23 927
23 930
23 942
23 953
23 956
23 971
23 972
23 981
23 984
23 986
23 1008
23 1010
23 1048
23 1096
23 1113
23 1114
23 1118
23 1139
23 1147
23 1154
23 1155
23 1158
23 1175
23 1184
23 1195
23 1197
23 1201
23 1261
23 1273
23 1296
23 1298
23 1300
23 1301
23 1307
23 1343
23 1366
23 1382
23 1410
23 1451
23 1456
23 1506
23 1516
23 1527
23 1542
23 1572
23 1573
23 1591
23 1592
23 1593
23 1614
23 1645
23 1688
23 1724
23 1772
23 1795
23 1805
23 1859
23 1880
23 1894
23 1895
23 1988
23 1998
23 2038
23 2066
23 2070
23 2096
23 2155
23 2193
23 2221
23 2243
23 2288
23 2302
23 2333
23 2349
23 2378
23 2467
23 2521
23 2560
23 2582
23 2657
23 2663
23 2664
23 2671
23 2693
23 2696
23 2728
23 2745
23 2755
23 2793
23 2796
23 2809
23 2829
23 2851
23 2867
23 2870
23 2871
23 2884
23 2887
23 3077
23 3135
23 3187
23 3238
23 3333
23 3336
23 3379
23 3380
23 3423
23 3426
23 3501
23 3564
23 3576
23 3577
23 3583
23 3596
23 3627
23 3636
23 3642
23 3691
23 3731
23 3738
23 3739
23 3748
23 4016
23 4078
23 4084
23 4096
23 4139
23 4150
23 4195
23 4200
23 4230
23 4256
23 4272
23 4280
23 4284
23 4304
23 4348
23 4367
23 4446
23 4448
23 4503
23 4525
23 4533
23 4537
23 4585
23 4603
23 4615
23 4694
23 4728
23 4753
23 4761
23 4772
23 4802
23 4813
23 4817
23 4889
23 4940
23 4942
23 4982
23 4990
23 5079
23 5097
23 5108
23 5175
23 5191
23 5287
23 5320
23 5337
23 5343
23 5357
23 5414
23 5512
23 5567
23 5628
23 5649
23 5655
23 5657
23 5664
23 5810
23 5814
23 5815
23 5817
23 5860
23 5876
23 5950
23 6000
23 6004
23 6126
23 6128
23 6145
23 6169
23 6176
23 6234
23 6282
23 6297
23 6317
23 6386
23 6392
23 6468
23 6477
23 6508
23 6524
23 6547
23 6578
23 6611
23 6647
23 6649
23 6675
23 6681
23 6692
23 6729
23 6758
23 6915
23 6974
23 6980
23 7046
23 7178
23 7208
23 7226
23 7270
23 7278
23 7509
23 7700
23 7733
23 7865
23 7869
23 7968
23 8057
23 8082
23 8112
23 8122
23 8161
23 8166
23 8303
23 8333
23 8438
23 8462
23 8496
23 8550
23 8615
23 8672
23 8746
23 8769
23 8783
23 8849
23 8850
23 8871
23 8934
23 9013
23 9031
23 9102
23 9140
23 9343
23 9362
23 9415
23 9474
23 9660
23 9682
23 9737
23 9777
23 9786
23 9842
23 9870
23 9891
23 9988
24 27
24 28
24 29
24 30
24 41
24 46
24 48
24 49
24 51
24 55
24 57
24 62
24 74
24 87
24 100
24 108
24 119
24 121
24 148
24 153
24 157
24 162
24 170
24 171
24 175
24 199
24 204
24 211
24 238
24 242
24 277
24 316
24 330
24 372
24 377
24 386
24 403
24 432
24 448
24 467
24 480
24 551
24 666
24 700
24 704
24 736
24 762
24 769
24 827
24 831
24 834
24 843
24 885
24 926
24 927
24 954
24 980
24 1027
24 1090
24 1119
24 1126
24 1153
24 1176
24 1231
24 1238
24 1278
24 1327
24 1343
24 1372
24 1377
24 1406
24 1421
24 1430
24 1465
24 1478
24 1572
24 1623
24 1626
24 1642
24 1648
24 1659
24 1697
24 1705
24 1835
24 1890
24 1940
24 1953
24 1972
24 2021
24 2064
24 2078
24 2105
24 2140
24 2158
24 2202
24 2218
24 2247
24 2249
24 2355
24 2442
24 2524
24 2533
24 2565
24 2597
24 2723
24 2766
24 2768
24 2834
24 2835
24 3066
24 3120
24 3176
24 3242
24 3329
24 3357
24 3495
24 3522
24 3576
24 3587
24 3709
24 3733
24 3752
24 3767
24 3823
24 3847
24 3886
24 3930
24 4013
24 4130
24 4160
24 4194
24 4220
24 4346
24 4369
24 4412
24 4517
24 4547
24 4550
24 4571
24 4583
24 4594
24 4633
24 4767
24 4800
24 4825
24 4903
24 4978
24 4981
24 5004
24 5027
24 5032
24 5092
24 5143
24 5206
24 5265
24 5283
24 5366
24 5370
24 5468
24 5471
24 5509
24 5587
24 5666
24 5696
24 5813
24 5879
24 5926
24 5961
24 6202
24 6248
24 6273
24 6320
24 6329
24 6402
24 6459
24 6475
24 6634
24 6654
24 6698
24 6736
24 6750
24 6782
24 6944
24 7007
24 7107
24 7278
24 7337
24 7497
24 7526
24 7695
24 7749
24 7754
24 7798
24 7912
24 7932
24 8058
24 8075
24 8140
24 8175
24 8397
24 8409
24 8457
24 8468
24 8611
24 8678
24 8726
24 8731
24 8756
24 8821
24 8890
24 8900
24 8970
24 9129
24 9288
24 9319
24 9325
24 9467
24 9676
24 9701
25 29
25 31
25 33
25 37
25 40
25 45
25 46
25 49
25 52
25 53
25 60
25 66
25 69
25 75
25 80
25 85
25 92
25 99
25 103
25 104
25 106
25 108
25 122
25 128
25 133
25 149
25 152
25 157
25 159
25 167
25 173
25 178
25 187
25 191
25 192
25 199
25 209
25 218
25 225
25 245
25 249
25 252
25 285
25 314
25 352
25 358
25 364
25 372
25 382
25 386
25 390
25 395
25 401
25 403
25 409
25 412
25 441
25 443
25 451
25 454
25 457
25 478
25 491
25 509
25 512
25 516
25 518
25 520
25 573
25 574
25 578
25 613
25 620
25 624
25 625
25 669
25 692
25 703
25 716
25 739
25 760
25 775
25 776
25 840
25 853
25 865
25 957
25 969
25 972
25 977
25 990
25 997
25 1014
25 1020
25 1022
25 1033
25 1067
25 1087
25 1114
25 1117
25 1163
25 1167
25 1256
25 1265
25 1289
25 1355
25 1368
25 1379
25 1395
25 1448
25 1502
25 1512
25 1579
25 1586
25 1605
25 1656
25 1659
25 1665
25 1693
25 1716
25 1718
25 1742
25 1743
25 1796
25 1799
25 1850
25 1876
25 1900
25 1970
25 2017
25 2124
25 2157
25 2194
25 2209
25 2265
25 2276
25 2280
25 2306
25 2309
25 2327
25 2347
25 2363
25 2402
25 2416
25 2433
25 2444
25 2471
25 2503
25 2521
25 2623
25 2633
25 2659
25 2722
25 2735
25 2738
25 2760
25 2771
25 2807
25 2843
25 2854
25 2868
25 2901
25 2918
25 2939
25 2979
25 3073
25 3079
25 3081
25 3141
25 3204
25 3207
25 3211
25 3260
25 3335
25 3358
25 3390
25 3401
25 3444
25 3470
25 3490
25 3559
25 3590
25 3619
25 3634
25 3724
25 3758
25 3766
25 3800
25 3813
25 3839
25 3882
25 3900
25 3919
25 3970
25 4056
25 4073
25 4098
25 4116
25 4119
25 4176
25 4180
25 4216
25 4230
25 4281
25 4399
25 4408
25 4506
25 4630
25 4634
25 4658
25 4728
25 4776
25 4791
25 4823
25 4857
25 4863
25 4864
25 4952
25 5051
25 5103
25 5135
25 5173
25 5205
25 5206
25 5212
25 5247
25 5303
25 5356
25 5434
25 5448
25 5495
25 5525
25 5528
25 5537
25 5544
25 5553
25 5616
25 5624
25 5669
25 5692
25 5696
25 5720
25 5794
25 5816
25 5827
25 5836
25 5842
25 5906
25 5966
25 5974
25 5976
25 6039
25 6088
25 6093
25 6139
25 6146
25 6171
25 6176
25 6221
25 6256
25 6305
25 6378
25 6437
25 6457
25 6468
25 6541
25 6546
25 6564
25 6694
25 6715
25 6834
25 6921
25 6959
25 6977
25 6989
25 7029
25 7043
25 7087
25 7118
25 7280
25 7289
25 7301
25 7323
25 7370
25 7422
25 7429
25 7469
25 7478
25 7517
25 7567
25 7586
25 7679
25 7699
25 7715
25 7812
25 7899
25 8010
25 8129
25 8175
25 8423
25 8545
25 8586
25 8656
25 8695
25 8750
25 8798
25 8868
25 8943
25 9063
25 9114
25 9121
25 9157
25 9158
25 9189
25 9214
25 9357
25 9364
25 9543
25 9544
25 9567
25 9592
25 9677
25 9698
25 9753
25 9782
25 9887
25 9901
25 9955
25 9969
26 27
26 29
26 31
26 33
26 40
26 41
26 44
26 45
26 49
26 54
26 59
26 60
26 62
26 63
26 67
26 69
26 70
26 71
26 74
26 75
26 77
26 82
26 86
26 87
26 90
26 91
26 112
26 132
26 134
26 135
26 136
26 138
26 144
26 148
26 152
26 153
26 163
26 176
26 178
26 184
26 185
26 192
26 201
26 202
26 204
26 207
26 212
26 215
26 219
26 227
26 243
26 247
26 270
26 273
26 314
26 336
26 340
26 349
26 357
26 363
26 375
26 379
26 382
26 396
26 428
26 429
26 431
26 433
26 447
26 451
26 466
26 467
26 477
26 486
26 492
26 510
26 519
26 523
26 547
26 561
26 565
26 575
26 578
26 583
26 586
26 601
26 613
26 636
26 648
26 656
26 678
26 681
26 713
26 731
26 759
26 786
26 845
26 892
26 895
26 896
26 918
26 920
26 928
26 947
26 960
26 964
26 992
26 1011
26 1023
26 1081
26 1091
26 1107
26 1131
26 1134
26 1138
26 1147
26 1188
26 1192
26 1199
26 1208
26 1244
26 1248
26 1253
26 1274
26 1279
26 1355
26 1381
26 1382
26 1386
26 1389
26 1408
26 1419
26 1433
26 1463
26 1468
26 1477
26 1480
26 1481
26 1498
26 1499
26 1504
26 1613
26 1617
26 1728
26 1746
26 1787
26 1794
26 1807
26 1811
26 1819
26 1889
26 1900
26 1901
26 1922
26 1933
26 1945
26 2134
26 2171
26 2218
26 2237
26 2247
26 2260
26 2279
26 2285
26 2320
26 2334
26 2357
26 2371
26 2377
26 2418
26 2420
26 2447
26 2458
26 2459
26 2472
26 2562
26 2578
26 2582
26 2614
26 2618
26 2620
26 2622
26 2642
26 2667
26 2703
26 2737
26 2750
26 2757
26 2760
26 2761
26 2796
26 2812
26 2843
26 2859
26 2866
26 2906
26 2909
26 2913
26 2924
26 2938
26 2981
26 3043
26 3052
26 3110
26 3115
26 3146
26 3223
26 3225
26 3265
26 3267
26 3277
26 3281
26 3375
26 3376
26 3426
26 3495
26 3507
26 3547
26 3564
26 3573
26 3585
26 3590
26 3683
26 3717
26 3761
26 3820
26 3822
26 3944
26 3962
26 3963
26 3984
26 3988
26 4053
26 4102
26 4134
26 4163
26 4180
26 4182
26 4192
26 4247
26 4285
26 4392
26 4395
26 4440
26 4467
26 4491
26 4526
26 4574
26 4609
26 4617
26 4637
26 4668
26 4671
26 4723
26 4725
26 4727
26 4735
26 4755
26 4807
26 4872
26 4874
26 4905
26 4927
26 4964
26 5010
26 5019
26 5037
26 5086
26 5096
26 5100
26 5105
26 5114
26 5115
26 5163
26 5176
26 5275
26 5303
26 5340
26 5410
26 5439
26 5471
26 5507
26 5612
26 5634
26 5681
26 5700
26 5783
26 5902
26 5915
26 5960
26 6006
26 6209
26 6218
26 6235
26 6240
26 6248
26 6308
26 6365
26 6470
26 6494
26 6731
26 6760
26 6782
26 6864
26 6942
26 6960
26 7041
26 7052
26 7075
26 7076
26 7089
26 7109
26 7163
26 7169
26 7244
26 7382
26 7415
26 7437
26 7442
26 7516
26 7548
26 7549
26 7552
26 7676
26 7702
26 7779
26 7794
26 7839
26 7883
26 7887
26 7906
26 7978
26 8034
26 8039
26 8077
26 8081
26 8091
26 8097
26 8115
26 8119
26 8122
26 8128
26 8132
26 8406
26 8504
26 8535
26 8551
26 8557
26 8589
26 8613
26 8639
26 8662
26 8666
26 8727
26 8730
26 8757
26 8760
26 8900
26 8903
26 8924
26 8956
26 9004
26 9061
26 9110
26 9162
26 9218
26 9272
26 9281
26 9289
26 9350
26 9410
26 9520
26 9601
26 9638
26 9746
26 9766
26 9885
27 35
27 40
27 41
27 42
27 54
27 81
27 84
27 91
27 112
27 121
27 148
27 182
27 198
27 202
27 207
27 211
27 243
27 278
27 305
27 368
27 413
27 451
27 468
27 604
27 627
27 666
27 780
27 811
27 831
27 870
27 899
27 931
27 943
27 967
27 993
27 1029
27 1052
27 1110
27 1119
27 1150
27 1187
27 1193
27 1232
27 1256
27 1259
27 1299
27 1366
27 1398
27 1407
27 1646
27 1894
27 1923
27 1928
27 1989
27 1992
27 2032
27 2102
27 2133
27 2136
27 2144
27 2187
27 2265
27 2367
27 2468
27 2495
27 2715
27 2754
27 2788
27 2902
27 2957
27 3031
27 3087
27 3090
27 3167
27 3235
27 3278
27 3389
27 3403
27 3469
27 3513
27 3553
27 3593
27 3708
27 3743
27 3805
27 3825
27 3845
27 3935
27 3953
27 4042
27 4120
27 4131
27 4171
27 4217
27 4232
27 4317
27 4421
27 4431
27 4439
27 4544
27 4848
27 5178
27 5191
27 5480
27 5550
27 5704
27 5792
27 6033
27 6213
27 6259
27 6271
27 6369
27 6426
27 6473
27 6565
27 6715
27 7202
27 7292
27 7879
27 7920
27 8317
27 8374
27 8399
27 8628
27 8720
27 8969
27 8988
27 9083
27 9195
27 9335
27 9383
27 9398
27 9490
27 9695
27 9899
27 9926
28 37
28 41
28 44
28 63
28 70
28 72
28 76
28 79
28 83
28 87
28 91
28 96
28 113
28 117
28 127
28 136
28 142
28 143
28 158
28 175
28 215
28 222
28 223
28 225
28 250
28 266
28 267
28 273
28 279
28 288
28 293
28 298
28 303
28 310
28 330
28 331
28 348
28 351
28 359
28 362
28 424
28 430
28 435
28 444
28 449
28 453
28 455
28 461
28 473
28 488
28 539
28 551
28 561
28 571
28 579
28 590
28 599
28 621
28 649
28 735
28 765
28 775
28 809
28 836
28 881
28 955
28 968
28 975
28 996
28 1103
28 1162
28 1189
28 1228
28 1229
28 1237
28 1309
28 1353
28 1428
28 1430
28 1492
28 1510
28 1529
28 1542
28 1612
28 1663
28 1690
28 1727
28 1765
28 1819
28 1926
28 1994
28 1999
28 2063
28 2097
28 2123
28 2152
28 2166
28 2173
28 2221
28 2228
28 2240
28 2241
28 2259
28 2269
28 2323
28 2338
28 2375
28 2405
28 2409
28 2414
28 2538
28 2552
28 2566
28 2613
28 2628
28 2640
28 2734
28 2747
28 2751
28 2762
28 2792
28 2910
28 3017
28 3055
28 3094
28 3099
28 3160
28 3184
28 3203
28 3207
28 3241
28 3313
28 3341
28 3442
28 3564
28 3640
28 3654
28 3690
28 3691
28 3790
28 3801
28 3839
28 3906
28 3958
28 3989
28 4009
28 4033
28 4043
28 4066
28 4088
28 4111
28 4118
28 4226
28 4287
28 4391
28 4442
28 4479
28 4502
28 4540
28 4559
28 4597
28 4607
28 4628
28 4686
28 4754
28 4803
28 4808
28 4842
28 4856
28 4909
28 4987
28 5000
28 5031
28 5418
28 5464
28 5507
28 5516
28 5605
28 5615
28 5627
28 5652
28 5737
28 5766
28 5839
28 5980
28 6001
28 6125
28 6134
28 6291
28 6331
28 6405
28 6488
28 6492
28 6504
28 6560
28 6709
28 6758
28 6769
28 6776
28 6895
28 7002
28 7094
28 7290
28 7419
28 7440
28 7764
28 7893
28 8040
28 8072
28 8126
28 8142
28 8208
28 8489
28 8532
28 8595
28 8605
28 8743
28 8748
28 8990
28 9120
28 9151
28 9549
28 9811
29 39
29 43
29 50
29 51
29 58
29 60
29 61
29 64
29 66
29 73
29 74
29 75
29 76
29 77
29 80
29 97
29 98
29 100
29 101
29 102
29 118
29 124
29 137
29 148
29 159
29 164
29 203
29 205
29 221
29 236
29 255
29 270
29 296
29 324
29 330
29 335
29 365
29 398
29 408
29 415
29 421
29 509
29 569
29 573
29 588
29 618
29 629
29 636
29 641
29 667
29 668
29 691
29 699
29 727
29 734
29 742
29 754
29 774
29 794
29 800
29 801
29 830
29 956
29 975
29 1005
29 1007
29 1033
29 1037
29 1038
29 1042
29 1063
29 1071
29 1089
29 1091
29 1104
29 1121
29 1124
29 1169
29 1191
29 1218
29 1239
29 1247
29 1286
29 1350
29 1362
29 1382
29 1384
29 1385
29 1480
29 1508
29 1575
29 1589
29 1595
29 1666
29 1816
29 1857
29 1883
29 1944
29 1969
29 1979
29 1990
29 2179
29 2190
29 2229
29 2295
29 2329
29 2346
29 2385
29 2408
29 2487
29 2490
29 2506
29 2553
29 2556
29 2585
29 2588
29 2604
29 2624
29 2634
29 2635
29 2673
29 2696
29 2705
29 2720
29 2767
29 2839
29 2862
29 2881
29 2968
29 3051
29 3115
29 3150
29 3192
29 3273
29 3299
29 3324
29 3333
29 3370
29 3394
29 3419
29 3421
29 3430
29 3441
29 3462
29 3481
29 3521
29 3542
29 3604
29 3674
29 3706
29 3718
29 3747
29 3757
29 3824
29 3892
29 3897
29 3900
29 3935
29 3945
29 4015
29 4051
29 4117
29 4133
29 4174
29 4177
29 4180
29 4216
29 4329
29 4391
29 4394
29 4396
29 4407
29 4468
29 4532
29 4567
29 4680
29 4877
29 4893
29 4952
29 4967
29 4986
29 5015
29 5375
29 5562
29 5610
29 5611
29 5655
29 5662
29 5708
29 5750
29 5799
29 5895
29 5907
29 5983
29 5986
29 6008
29 6019
29 6058
29 6095
29 6256
29 6298
29 6341
29 6379
29 6383
29 6511
29 6577
29 6607
29 6635
29 6651
29 6804
29 6865
29 6996
29 7007
29 7219
29 7243
29 7292
29 7407
29 7602
29 7710
29 7734
29 7761
29 7867
29 8069
29 8071
29 8130
29 8408
29 8536
29 8579
29 8704
29 8788
29 8872
29 8984
29 9095
29 9151
29 9238
29 9250
29 9401
29 9587
29 9632
29 9679
29 9708
29 9854
29 9873
29 9908
29 9928
29 9947
30 33
30 38
30 45
30 46
30 59
30 64
30 91
30 96
30 100
30 113
30 119
30 167
30 219
30 221
30 223
30 235
30 236
30 274
30 296
30 334
30 359
30 382
30 438
30 440
30 443
30 478
30 506
30 618
30 649
30 661
30 671
30 756
30 835
30 842
30 852
30 866
30 907
30 966
30 1059
30 1064
30 1075
30 1094
30 1144
30 1177
30 1288
30 1290
30 1500
30 1553
30 1608
30 1755
30 1793
30 1954
30 2058
30 2061
30 2079
30 2084
30 2266
30 2366
30 2410
30 2480
30 2553
30 2561
30 2602
30 2612
30 2662
30 2834
30 2935
30 2988
30 3255
30 3304
30 3307
30 3310
30 3320
30 3363
30 3590
30 3591
30 3889
30 3973
30 4135
30 4178
30 4375
30 4414
30 4781
30 4860
30 5021
30 5225
30 5369
30 5371
30 5499
30 5500
30 5696
30 5708
30 5716
30 5806
30 5908
30 5954
30 5991
30 5996
30 6036
30 6227
30 6444
30 6467
30 6725
30 6742
30 6810
30 6860
30 6869
30 6879
30 6888
30 6972
30 7139
30 7231
30 7395
30 7402
30 7464
30 7479
30 7566
30 7653
30 7759
30 7979
30 8182
30 8260
30 8384
30 8404
30 8491
30 8852
30 8929
30 9052
30 9244
30 9249
30 9251
30 9280
30 9354
30 9399
30 9415
30 9580
30 9597
31 35
31 36
31 45
31 52
31 54
31 59
31 64
31 72
31 83
31 102
31 117
31 125
31 126
31 135
31 147
31 150
31 154
31 178
31 190
31 195
31 235
31 252
31 272
31 278
31 280
31 309
31 314
31 334
31 361
31 373
31 414
31 443
31 447
31 451
31 469
31 479
31 492
31 563
31 611
31 694
31 705
31 725
31 777
31 800
31 863
31 892
31 915
31 951
31 963
31 1042
31 1045
31 1109
31 1168
31 1180
31 1183
31 1185
31 1190
31 1269
31 1273
31 1322
31 1339
31 1535
31 1649
31 1656
31 1760
31 1767
31 1793
31 1862
31 1956
31 2020
31 2027
31 2079
31 2192
31 2230
31 2281
31 2329
31 2414
31 2429
31 2503
31 2585
31 2643
31 2704
31 2725
31 2786
31 2861
31 2936
31 2983
31 2993
31 3128
31 3175
31 3240
31 3308
31 3461
31 3621
31 3803
31 3812
31 3852
31 3983
31 4094
31 4308
31 4338
31 4432
31 4493
31 4513
31 4536
31 4550
31 4556
31 4638
31 4676
31 4703
31 4767
31 4786
31 5004
31 5445
31 5505
31 5538
31 5664
31 5718
31 5884
31 5997
31 6009
31 6143
31 6159
31 6354
31 6693
31 6712
31 6819
31 6908
31 6939
31 6944
31 7090
31 7209
31 7251
31 7353
31 7501
31 7564
31 7740
31 7797
31 7850
31 7941
31 7990
31 8047
31 8052
31 8065
31 8077
31 8106
31 8232
31 8333
31 8340
31 8381
31 8439
31 8479
31 8498
31 8668
31 8739
31 8798
31 8813
31 8920
31 8971
31 9067
31 9089
31 9174
31 9189
31 9397
31 9548
31 9936
32 34
32 36
32 41
32 42
32 47
32 54
32 55
32 57
32 62
32 65
32 74
32 86
32 96
32 101
32 111
32 115
32 129
32 134
32 135
32 136
32 145
32 169
32 170
32 173
32 178
32 179
32 180
32 197
32 222
32 227
32 229
32 234
32 248
32 261
32 268
32 276
32 295
32 347
32 350
32 352
32 357
32 374
32 379
32 381
32 391
32 420
32 492
32 501
32 511
32 593
32 606
32 609
32 694
32 716
32 717
32 739
32 747
32 784
32 803
32 847
32 916
32 1024
32 1057
32 1075
32 1104
32 1111
32 1120
32 1131
32 1154
32 1168
32 1195
32 1223
32 1243
32 1255
32 1267
32 1284
32 1285
32 1331
32 1334
32 1351
32 1356
32 1418
32 1422
32 1558
32 1645
32 1673
32 1712
32 1755
32 1758
32 1797
32 1827
32 1935
32 1973
32 1974
32 2035
32 2122
32 2182
32 2187
32 2227
32 2234
32 2236
32 2384
32 2391
32 2448
32 2498
32 2511
32 2512
32 2561
32 2667
32 2685
32 2930
32 2953
32 2966
32 2990
32 3102
32 3130
32 3165
32 3223
32 3237
32 3247
32 3251
32 3442
32 3453
32 3523
32 3536
32 3575
32 3592
32 3615
32 3623
32 3630
32 3688
32 3714
32 3774
32 3795
32 3962
32 3973
32 4082
32 4090
32 4239
32 4360
32 4410
32 4421
32 4440
32 4449
32 4452
32 4553
32 4560
32 4582
32 4590
32 4649
32 4658
32 4673
32 4688
32 4690
32 4817
32 4846
32 4853
32 4899
32 4915
32 5058
32 5090
32 5208
32 5246
32 5299
32 5320
32 5497
32 5526
32 5572
32 5579
32 5581
32 5594
32 5604
32 5735
32 5746
32 5762
32 5770
32 5792
32 5888
32 5920
32 5983
32 6019
32 6062
32 6063
32 6070
32 6094
32 6132
32 6135
32 6280
32 6283
32 6318
32 6372
32 6388
32 6465
32 6554
32 6735
32 6799
32 6808
32 7010
32 7071
32 7328
32 7336
32 7373
32 7381
32 7408
32 7623
32 7785
32 7835
32 7927
32 7946
32 8084
32 8122
32 8134
32 8145
32 8243
32 8264
32 8325
32 8394
32 8515
32 8694
32 8762
32 8771
32 8785
32 8844
32 8874
32 8883
32 8904
32 8934
32 8978
32 9027
32 9065
32 9155
32 9191
32 9205
32 9237
32 9281
32 9322
32 9368
32 9510
32 9563
32 9725
32 9750
32 9794
32 9831
32 9868
32 9897
33 40
33 47
33 52
33 53
33 59
33 69
33 76
33 79
33 80
33 85
33 90
33 105
33 112
33 120
33 123
33 124
33 139
33 140
33 149
33 154
33 197
33 198
33 200
33 211
33 224
33 248
33 260
33 275
33 279
33 290
33 308
33 326
33 351
33 355
33 363
33 371
33 389
33 429
33 431
33 437
33 462
33 491
33 500
33 506
33 511
33 521
33 576
33 671
33 685
33 688
33 726
33 730
33 778
33 788
33 840
33 852
33 857
33 879
33 887
33 896
33 934
33 938
33 957
33 968
33 1035
33 1071
33 1077
33 1086
33 1098
33 1146
33 1197
33 1218
33 1222
33 1241
33 1274
33 1277
33 1282
33 1302
33 1326
33 1357
33 1429
33 1432
33 1447
33 1462
33 1543
33 1597
33 1602
33 1614
33 1620
33 1654
33 1657
33 1710
33 1742
33 1780
33 1812
33 1839
33 1888
33 1978
33 1980
33 1984
33 2191
33 2221
33 2239
33 2330
33 2332
33 2367
33 2375
33 2425
33 2439
33 2498
33 2536
33 2563
33 2585
33 2628
33 2677
33 2713
33 2755
33 2771
33 2793
33 2877
33 2914
33 2939
33 3044
33 3046
33 3061
33 3251
33 3259
33 3350
33 3411
33 3443
33 3483
33 3491
33 3501
33 3568
33 3569
33 3599
33 3628
33 3704
33 3716
33 3773
33 3803
33 3826
33 3880
33 3888
33 3899
33 4060
33 4096
33 4205
33 4240
33 4254
33 4281
33 4312
33 4318
33 4333
33 4357
33 4382
33 4428
33 4573
33 4578
33 4634
33 4643
33 4653
33 4752
33 4753
33 4816
33 4907
33 4934
33 4974
33 5059
33 5124
33 5198
33 5525
33 5560
33 5592
33 5679
33 5731
33 5849
33 5906
33 5943
33 6212
33 6231
33 6237
33 6244
33 6279
33 6458
33 6574
33 6665
33 6715
33 6720
33 6876
33 6944
33 6973
33 7141
33 7152
33 7240
33 7276
33 7311
33 7315
33 7394
33 7488
33 7503
33 7554
33 7576
33 7626
33 7805
33 7816
33 8041
33 8069
33 8085
33 8123
33 8193
33 8302
33 8303
33 8312
33 8354
33 8571
33 8587
33 8613
33 8619
33 8804
33 8841
33 8862
33 8903
33 9015
33 9032
33 9055
33 9233
33 9264
33 9285
33 9297
33 9370
33 9388
33 9495
33 9658
33 9669
33 9714
33 9739
33 9774
33 9817
33 9841
33 9881
33 9908
34 56
34 68
34 71
34 72
34 73
34 74
34 81
34 83
34 84
34 93
34 98
34 100
34 101
34 106
34 126
34 134
34 147
34 171
34 178
34 179
34 205
34 216
34 225
34 250
34 258
34 271
34 347
34 367
34 375
34 385
34 399
34 482
34 488
34 512
34 595
34 609
34 614
34 647
34 668
34 686
34 694
34 718
34 729
34 768
34 769
34 807
34 882
34 1027
34 1038
34 1133
34 1171
34 1215
34 1262
34 1293
34 1367
34 1373
34 1380
34 1421
34 1450
34 1472
34 1479
34 1578
34 1596
34 1603
34 1722
34 1764
34 1776
34 1785
34 1846
34 1855
34 1933
34 1936
34 1959
34 1960
34 2067
34 2083
34 2097
34 2107
34 2124
34 2131
34 2345
34 2378
34 2582
34 2604
34 2606
34 2630
34 2732
34 2818
34 2896
34 2905
34 2937
34 2956
34 2961
34 3110
34 3126
34 3275
34 3277
34 3350
34 3505
34 3541
34 3582
34 3638
34 3765
34 3779
34 3787
34 3875
34 3966
34 3983
34 3988
34 3992
34 4072
34 4103
34 4161
34 4209
34 4390
34 4412
34 4470
34 4589
34 4706
34 4834
34 4844
34 4872
34 5015
34 5025
34 5036
34 5256
34 5438
34 5470
34 5473
34 5555
34 5633
34 5657
34 5673
34 5794
34 6003
34 6066
34 6177
34 6212
34 6315
34 6514
34 6601
34 6621
34 6659
34 6839
34 6917
34 6943
34 7205
34 7245
34 7261
34 7304
34 7406
34 7495
34 7580
34 7810
34 7901
34 7915
34 8099
34 8339
34 8375
34 8396
34 8499
34 8541
34 8671
34 8675
34 8833
34 8921
34 9001
34 9055
34 9079
34 9149
34 9185
34 9202
34 9282
34 9436
34 9485
34 9501
34 9570
34 9676
34 9708
34 9860
34 9908
34 9957
35 44
35 54
35 65
35 76
35 79
35 89
35 94
35 95
35 101
35 103
35 113
35 127
35 130
35 133
35 142
35 174
35 197
35 208
35 213
35 222
35 225
35 230
35 241
35 246
35 252
35 257
35 288
35 289
35 292
35 308
35 329
35 342
35 370
35 389
35 415
35 448
35 452
35 467
35 481
35 491
35 494
35 500
35 505
35 508
35 514
35 516
35 525
35 529
35 541
35 562
35 563
35 567
35 573
35 577
35 585
35 593
35 655
35 668
35 675
35 677
35 688
35 708
35 727
35 732
35 738
35 742
35 746
35 757
35 768
35 784
35 795
35 801
35 816
35 817
35 862
35 864
35 871
35 907
35 923
35 935
35 948
35 950
35 954
35 971
35 992
35 1005
35 1024
35 1043
35 1064
35 1070
35 1088
35 1098
35 1115
35 1122
35 1140
35 1146
35 1158
35 1176
35 1202
35 1302
35 1365
35 1407
35 1409
35 1515
35 1522
35 1553
35 1590
35 1599
35 1638
35 1663
35 1684
35 1719
35 1724
35 1734
35 1752
35 1788
35 1808
35 1820
35 1862
35 1863
35 1873
35 1911
35 1922
35 1929
35 1999
35 2032
35 2062
35 2064
35 2065
35 2071
35 2099
35 2139
35 2196
35 2199
35 2203
35 2301
35 2310
35 2326
35 2332
35 2334
35 2393
35 2511
35 2563
35 2565
35 2598
35 2607
35 2731
35 2786
35 2792
35 2798
35 2813
35 2895
35 2907
35 2947
35 3049
35 3060
35 3081
35 3116
35 3126
35 3169
35 3390
35 3415
35 3436
35 3444
35 3455
35 3462
35 3468
35 3524
35 3535
35 3680
35 3684
35 3686
35 3689
35 3709
35 3721
35 3725
35 3777
35 3784
35 3858
35 3894
35 3976
35 4021
35 4032
35 4099
35 4101
35 4118
35 4178
35 4205
35 4256
35 4266
35 4267
35 4274
35 4275
35 4290
35 4299
35 4354
35 4368
35 4445
35 4449
35 4463
35 4474
35 4561
35 4637
35 4641
35 4670
35 4674
35 4771
35 4809
35 4843
35 4867
35 4876
35 4903
35 4939
35 4973
35 5047
35 5076
35 5090
35 5108
35 5164
35 5189
35 5301
35 5305
35 5309
35 5329
35 5384
35 5394
35 5402
35 5435
35 5451
35 5490
35 5515
35 5552
35 5600
35 5699
35 5760
35 5836
35 5881
35 5884
35 5974
35 6078
35 6126
35 6155
35 6209
35 6273
35 6296
35 6321
35 6382
35 6475
35 6498
35 6540
35 6544
35 6551
35 6571
35 6621
35 6662
35 6663
35 6754
35 6768
35 6802
35 6826
35 6970
35 7017
35 7057
35 7103
35 7129
35 7176
35 7185
35 7200
35 7203
35 7212
35 7217
35 7261
35 7328
35 7353
35 7427
35 7500
35 7510
35 7548
35 7586
35 7637
35 7684
35 7691
35 7936
35 8024
35 8079
35 8167
35 8222
35 8228
35 8320
35 8375
35 8514
35 8638
35 8645
35 8708
35 8742
35 8898
35 8944
35 8961
35 8973
35 8976
35 8989
35 9136
35 9164
35 9196
35 9202
35 9209
35 9221
35 9247
35 9257
35 9346
35 9352
35 9401
35 9564
35 9568
35 9633
35 9699
35 9803
35 9844
35 9845
35 9857
35 9984
36 43
36 52
36 56
36 64
36 82
36 84
36 119
36 129
36 137
36 138
36 168
36 185
36 198
36 207
36 238
36 240
36 266
36 345
36 351
36 357
36 417
36 507
36 547
36 609
36 658
36 703
36 792
36 797
36 809
36 861
36 862
36 913
36 914
36 943
36 970
36 1109
36 1189
36 1223
36 1227
36 1229
36 1247
36 1263
36 1439
36 1478
36 1498
36 1531
36 1631
36 1637
36 1781
36 2087
36 2091
36 2346
36 2394
36 2462
36 2522
36 2536
36 2587
36 2611
36 2679
36 2689
36 2699
36 2720
36 2748
36 2870
36 2919
36 3055
36 3083
36 3107
36 3216
36 3284
36 3422
36 3423
36 3627
36 3791
36 3868
36 4055
36 4340
36 4730
36 4748
36 4804
36 5142
36 5361
36 5403
36 5622
36 5658
36 5668
36 5869
36 5969
36 6158
36 6160
36 6208
36 6463
36 6502
36 6542
36 6558
36 6618
36 6801
36 7013
36 7029
36 7044
36 7054
36 7289
36 7311
36 7339
36 7432
36 7904
36 7927
36 7994
36 8218
36 8482
36 8742
36 8996
36 9093
36 9127
36 9261
36 9546
36 9579
36 9671
36 9673
37 43
37 58
37 59
37 62
37 70
37 75
37 79
37 88
37 90
37 94
37 100
37 103
37 109
37 122
37 124
37 127
37 133
37 137
37 155
37 158
37 170
37 187
37 191
37 202
37 208
37 231
37 244
37 247
37 254
37 262
37 264
37 271
37 304
37 306
37 320
37 332
37 347
37 358
37 374
37 407
37 449
37 463
37 477
37 509
37 511
37 512
37 534
37 567
37 638
37 646
37 654
37 670
37 735
37 738
37 755
37 770
37 782
37 791
37 797
37 855
37 909
37 956
37 963
37 1009
37 1012
37 1032
37 1075
37 1083
37 1166
37 1181
37 1230
37 1273
37 1292
37 1301
37 1347
37 1412
37 1415
37 1446
37 1519
37 1527
37 1566
37 1568
37 1577
37 1659
37 1665
37 1676
37 1677
37 1709
37 1762
37 1791
37 1883
37 1888
37 1926
37 1986
37 2133
37 2162
37 2225
37 2235
37 2238
37 2239
37 2293
37 2316
37 2317
37 2319
37 2457
37 2504
37 2561
37 2581
37 2600
37 2641
37 2682
37 2741
37 2833
37 2888
37 2905
37 2915
37 2976
37 3024
37 3026
37 3036
37 3038
37 3128
37 3196
37 3275
37 3287
37 3369
37 3514
37 3534
37 3595
37 3640
37 3664
37 3669
37 3860
37 4000
37 4074
37 4077
37 4080
37 4172
37 4176
37 4203
37 4263
37 4291
37 4367
37 4387
37 4413
37 4473
37 4531
37 4564
37 4589
37 4648
37 4773
37 4797
37 4809
37 4847
37 5070
37 5157
37 5164
37 5287
37 5317
37 5409
37 5463
37 5470
37 5520
37 5617
37 5656
37 5742
37 5752
37 5785
37 5883
37 5991
37 6005
37 6084
37 6113
37 6166
37 6309
37 6408
37 6413
37 6424
37 6494
37 6571
37 6604
37 6729
37 6760
37 6847
37 6852
37 6882
37 6954
37 7158
37 7177
37 7191
37 7395
37 7399
37 7400
37 7489
37 7529
37 7541
37 7544
37 7699
37 7759
37 7813
37 7821
37 7906
37 7983
37 8097
37 8104
37 8285
37 8304
37 8368
37 8544
37 8589
37 8654
37 8667
37 8946
37 9334
37 9362
37 9363
37 9427
37 9476
37 9681
37 9884
38 53
38 54
38 55
38 71
38 72
38 77
38 85
38 102
38 108
38 121
38 123
38 145
38 163
38 187
38 203
38 207
38 235
38 245
38 264
38 278
38 317
38 344
38 399
38 417
38 422
38 440
38 529
38 538
38 565
38 582
38 619
38 633
38 677
38 678
38 719
38 721
38 746
38 752
38 773
38 782
38 810
38 812
38 837
38 858
38 952
38 955
38 1030
38 1042
38 1138
38 1537
38 1642
38 1767
38 1861
38 1953
38 1980
38 2074
38 2116
38 2138
38 2251
38 2327
38 2506
38 2614
38 2722
38 2771
38 3187
38 3303
38 3320
38 3326
38 3361
38 3515
38 3542
38 3576
38 3646
38 3762
38 3809
38 3840
38 4148
38 4162
38 4213
38 4362
38 4538
38 4726
38 5069
38 5257
38 5337
38 5377
38 5612
38 5613
38 5629
38 5643
38 5719
38 6130
38 6290
38 6384
38 6503
38 6604
38 7224
38 7273
38 7281
38 7408
38 7590
38 7695
38 7866
38 7900
38 7939
38 8311
38 8680
38 8709
38 8784
38 8790
38 9089
38 9199
38 9230
38 9261
38 9294
38 9337
38 9469
39 42
39 43
39 47
39 56
39 60
39 71
39 77
39 78
39 85
39 87
39 93
39 99
39 107
39 114
39 129
39 141
39 153
39 164
39 173
39 177
39 195
39 199
39 211
39 212
39 216
39 249
39 259
39 262
39 266
39 279
39 292
39 293
39 344
39 346
39 364
39 366
39 394
39 398
39 432
39 481
39 535
39 563
39 635
39 681
39 702
39 735
39 788
39 810
39 813
39 822
39 842
39 854
39 865
39 879
39 922
39 925
39 926
39 1031
39 1033
39 1077
39 1124
39 1225
39 1235
39 1254
39 1258
39 1264
39 1302
39 1323
39 1353
39 1364
39 1521
39 1530
39 1551
39 1563
39 1606
39 1627
39 1631
39 1673
39 1714
39 1715
39 1795
39 1797
39 1842
39 1863
39 1881
39 1917
39 1943
39 2116
39 2191
39 2233
39 2245
39 2287
39 2309
39 2443
39 2475
39 2480
39 2488
39 2513
39 2602
39 2635
39 2645
39 2739
39 2770
39 2843
39 2856
39 2876
39 2970
39 2978
39 3115
39 3181
39 3199
39 3211
39 3258
39 3293
39 3326
39 3372
39 3390
39 3459
39 3515
39 3518
39 3648
39 3690
39 3818
39 3838
39 3939
39 3990
39 4027
39 4116
39 4189
39 4236
39 4367
39 4370
39 4394
39 4431
39 4626
39 4698
39 4767
39 4781
39 4839
39 4920
39 5003
39 5065
39 5106
39 5107
39 5126
39 5127
39 5222
39 5704
39 5741
39 5924
39 5938
39 5964
39 5987
39 6050
39 6109
39 6148
39 6182
39 6253
39 6318
39 6337
39 6355
39 6397
39 6415
39 6437
39 6445
39 6470
39 6562
39 6574
39 6651
39 7169
39 7345
39 7457
39 7462
39 7465
39 7679
39 7770
39 7826
39 7963
39 7998
39 8020
39 8069
39 8119
39 8130
39 8277
39 8340
39 8393
39 8440
39 8488
39 8716
39 8857
39 8876
39 8963
39 9160
39 9239
39 9254
39 9380
39 9398
39 9468
39 9484
39 9534
39 9583
39 9628
39 9632
39 9650
39 9813
39 9840
39 9900
39 9947
40 42
40 68
40 78
40 102
40 151
40 155
40 158
40 159
40 162
40 163
40 164
40 178
40 184
40 198
40 212
40 232
40 259
40 270
40 274
40 277
40 280
40 326
40 331
40 370
40 372
40 380
40 394
40 412
40 425
40 427
40 447
40 452
40 474
40 506
40 517
40 530
40 532
40 605
40 608
40 637
40 645
40 653
40 679
40 693
40 710
40 727
40 748
40 771
40 774
40 780
40 844
40 912
40 914
40 916
40 920
40 939
40 946
40 955
40 962
40 985
40 1003
40 1004
40 1022
40 1028
40 1052
40 1081
40 1151
40 1165
40 1202
40 1213
40 1236
40 1247
40 1250
40 1278
40 1303
40 1367
40 1457
40 1481
40 1495
40 1514
40 1534
40 1549
40 1569
40 1585
40 1617
40 1645
40 1662
40 1667
40 1671
40 1781
40 1787
40 1857
40 1863
40 1871
40 1942
40 1946
40 1956
40 1987
40 2074
40 2101
40 2107
40 2162
40 2169
40 2186
40 2224
40 2263
40 2297
40 2306
40 2310
40 2334
40 2361
40 2419
40 2443
40 2463
40 2466
40 2470
40 2475
40 2523
40 2542
40 2596
40 2599
40 2619
40 2621
40 2634
40 2678
40 2690
40 2777
40 2842
40 2853
40 2876
40 2921
40 2928
40 3030
40 3288
40 3307
40 3308
40 3389
40 3399
40 3412
40 3483
40 3608
40 3728
40 3734
40 3791
40 3802
40 3850
40 3871
40 3952
40 3953
40 3954
40 4038
40 4065
40 4355
40 4367
40 4437
40 4460
40 4477
40 4627
40 4637
40 4685
40 4700
40 4727
40 4737
40 5098
40 5109
40 5116
40 5124
40 5133
40 5134
40 5212
40 5241
40 5262
40 5302
40 5338
40 5352
40 5463
40 5561
40 5611
40 5635
40 5727
40 5801
40 5807
40 5935
40 6019
40 6034
40 6038
40 6160
40 6229
40 6339
40 6359
40 6401
40 6512
40 6519
40 6582
40 6623
40 6709
40 6777
40 6787
40 7031
40 7116
40 7119
40 7135
40 7233
40 7392
40 7502
40 7534
40 7735
40 7864
40 7882
40 7959
40 8017
40 8103
40 8174
40 8527
40 8575
40 8580
40 8762
40 8828
40 8882
40 9019
40 9064
40 9392
40 9664
40 9714
40 9792
40 9985
41 44
41 46
41 48
41 53
41 58
41 64
41 67
41 98
41 125
41 139
41 143
41 147
41 167
41 169
41 177
41 192
41 200
41 214
41 217
41 230
41 246
41 259
41 279
41 285
41 289
41 309
41 313
41 335
41 336
41 340
41 356
41 361
41 389
41 405
41 428
41 441
41 471
41 499
41 507
41 511
41 522
41 561
41 563
41 598
41 637
41 643
41 698
41 706
41 789
41 854
41 978
41 1000
41 1004
41 1036
41 1061
41 1081
41 1101
41 1161
41 1181
41 1182
41 1237
41 1277
41 1317
41 1335
41 1352
41 1459
41 1468
41 1495
41 1526
41 1550
41 1621
41 1718
41 1752
41 1793
41 1882
41 1919
41 2135
41 2175
41 2265
41 2266
41 2275
41 2400
41 2414
41 2529
41 2554
41 2578
41 2613
41 2620
41 2629
41 2638
41 2642
41 2693
41 2738
41 2802
41 2806
41 2810
41 3031
41 3074
41 3113
41 3177
41 3192
41 3210
41 3227
41 3229
41 3294
41 3377
41 3457
41 3515
41 3540
41 3600
41 3651
41 3660
41 3664
41 3700
41 3736
41 3765
41 3776
41 3868
41 3934
41 4159
41 4203
41 4219
41 4374
41 4425
41 4512
41 4528
41 4539
41 4661
41 4705
41 4749
41 4927
41 4951
41 5000
41 5005
41 5049
41 5083
41 5147
41 5251
41 5321
41 5420
41 5433
41 5662
41 5703
41 5812
41 5849
41 5985
41 6064
41 6127
41 6246
41 6374
41 6468
41 6562
41 6565
41 6768
41 6872
41 6893
41 6919
41 7060
41 7127
41 7263
41 7349
41 7476
41 7493
41 7541
41 7564
41 7574
41 7578
41 7591
41 7625
41 7674
41 7950
41 8082
41 8212
41 8230
41 8337
41 8417
41 8692
41 8865
41 8940
41 9154
41 9177
41 9251
41 9324
41 9387
41 9392
41 9448
41 9542
41 9760
41 9960
42 56
42 92
42 104
42 105
42 160
42 174
42 187
42 196
42 251
42 327
42 362
42 484
42 488
42 511
42 627
42 663
42 693
42 732
42 741
42 772
42 783
42 790
42 824
42 875
42 1027
42 1058
42 1163
42 1211
42 1277
42 1294
42 1432
42 1434
42 1439
42 1458
42 1467
42 1495
42 1504
42 1548
42 1569
42 1696
42 1855
42 1873
42 2018
42 2045
42 2141
42 2170
42 2263
42 2414
42 2415
42 2420
42 2424
42 2534
42 2584
42 2596
42 2603
42 2695
42 2768
42 2859
42 3263
42 3333
42 3487
42 3540
42 3593
42 3621
42 3703
42 3782
42 3845
42 3916
42 3932
42 3993
42 4062
42 4097
42 4174
42 4326
42 4385
42 4393
42 4411
42 4525
42 4543
42 5044
42 5142
42 5177
42 5222
42 5244
42 5459
42 5652
42 5920
42 5949
42 6019
42 6252
42 6293
42 6424
42 6648
42 7140
42 7177
42 7478
42 7608
42 7656
42 7657
42 7675
42 7703
42 7793
42 7804
42 8029
42 8079
42 8330
42 8573
42 8674
42 8725
42 8974
42 9276
42 9674
42 9818
42 9888
43 44
43 47
43 48
43 51
43 64
43 75
43 93
43 107
43 110
43 112
43 120
43 121
43 169
43 200
43 210
43 211
43 245
43 266
43 276
43 283
43 286
43 288
43 307
43 316
43 323
43 327
43 333
43 348
43 350
43 358
43 368
43 407
43 410
43 413
43 419
43 467
43 493
43 494
43 498
43 611
43 641
43 642
43 668
43 727
43 733
43 736
43 817
43 828
43 856
43 863
43 876
43 887
43 906
43 929
43 957
43 983
43 986
43 1120
43 1155
43 1157
43 1164
43 1202
43 1212
43 1222
43 1258
43 1267
43 1280
43 1295
43 1296
43 1361
43 1362
43 1398
43 1538
43 1615
43 1677
43 1693
43 1718
43 1789
43 1793
43 1805
43 1816
43 1883
43 1902
43 2044
43 2079
43 2089
43 2303
43 2341
43 2352
43 2443
43 2550
43 2557
43 2610
43 2715
43 2720
43 2747
43 2765
43 2767
43 2785
43 2795
43 3002
43 3110
43 3140
43 3175
43 3209
43 3287
43 3313
43 3377
43 3426
43 3570
43 3581
43 3603
43 3613
43 3614
43 3636
43 3708
43 3750
43 3811
43 3946
43 3976
43 4005
43 4038
43 4103
43 4528
43 4590
43 4997
43 5016
43 5179
43 5186
43 5326
43 5331
43 5572
43 5574
43 5585
43 5602
43 5634
43 5654
43 5730
43 5734
43 5736
43 5783
43 5817
43 6153
43 6192
43 6352
43 6393
43 6422
43 6523
43 6573
43 6578
43 6582
43 6605
43 6767
43 6792
43 6841
43 7011
43 7128
43 7163
43 7327
43 7522
43 7576
43 7588
43 7596
43 7735
43 7841
43 7889
43 7912
43 7934
43 8042
43 8099
43 8107
43 8135
43 8151
43 8228
43 8462
43 8523
43 8632
43 8673
43 8684
43 8842
43 8975
43 8999
43 9159
43 9190
43 9196
43 9320
43 9498
43 9534
43 9538
43 9617
43 9808
43 9969
44 46
44 47
44 64
44 69
44 72
44 79
44 102
44 109
44 114
44 120
44 187
44 205
44 209
44 211
44 214
44 287
44 293
44 298
44 311
44 334
44 341
44 369
44 371
44 385
44 389
44 424
44 426
44 542
44 545
44 580
44 582
44 617
44 620
44 644
44 662
44 675
44 712
44 751
44 765
44 790
44 803
44 821
44 868
44 876
44 880
44 962
44 1043
44 1046
44 1096
44 1101
44 1121
44 1133
44 1134
44 1168
44 1261
44 1277
44 1285
44 1300
44 1334
44 1365
44 1417
44 1423
44 1435
44 1535
44 1547
44 1580
44 1739
44 1748
44 1757
44 1811
44 1872
44 1903
44 1914
44 1928
44 1994
44 2034
44 2202
44 2244
44 2270
44 2284
44 2338
44 2366
44 2400
44 2464
44 2497
44 2533
44 2541
44 2560
44 2594
44 2649
44 2664
44 2718
44 2722
44 2752
44 2815
44 2828
44 2905
44 3011
44 3025
44 3036
44 3058
44 3063
44 3220
44 3235
44 3264
44 3284
44 3289
44 3304
44 3364
44 3404
44 3407
44 3520
44 3606
44 3655
44 3717
44 3801
44 3821
44 3941
44 3983
44 4114
44 4121
44 4164
44 4198
44 4431
44 4432
44 4437
44 4481
44 4549
44 4569
44 4629
44 4658
44 4670
44 4758
44 4763
44 4886
44 4910
44 4913
44 5195
44 5283
44 5334
44 5363
44 5366
44 5395
44 5457
44 5539
44 5623
44 5652
44 5806
44 5821
44 5893
44 5923
44 5937
44 5946
44 6025
44 6027
44 6113
44 6204
44 6261
44 6294
44 6375
44 6405
44 6442
44 6690
44 7027
44 7066
44 7068
44 7265
44 7292
44 7394
44 7419
44 7475
44 7613
44 7969
44 8217
44 8326
44 8394
44 8446
44 8539
44 8775
44 8796
44 8899
44 8921
44 9066
44 9133
44 9138
44 9209
44 9252
44 9344
44 9441
44 9538
44 9586
44 9687
44 9731
44 9947
45 51
45 52
45 58
45 60
45 61
45 65
45 68
45 87
45 92
45 114
45 119
45 129
45 130
45 147
45 153
45 163
45 166
45 174
45 176
45 186
45 199
45 200
45 205
45 241
45 244
45 249
45 254
45 273
45 285
45 288
45 291
45 295
45 301
45 311
45 312
45 320
45 340
45 385
45 417
45 449
45 466
45 470
45 490
45 523
45 525
45 527
45 534
45 540
45 547
45 564
45 593
45 598
45 605
45 623
45 652
45 676
45 684
45 690
45 704
45 707
45 743
45 784
45 799
45 822
45 838
45 859
45 867
45 911
45 918
45 999
45 1001
45 1039
45 1055
45 1149
45 1195
45 1203
45 1224
45 1242
45 1284
45 1294
45 1300
45 1310
45 1336
45 1392
45 1413
45 1416
45 1450
45 1494
45 1509
45 1518
45 1539
45 1544
45 1580
45 1611
45 1614
45 1632
45 1682
45 1749
45 1775
45 1777
45 1829
45 1842
45 1844
45 1853
45 1859
45 1866
45 1906
45 1954
45 1992
45 2010
45 2031
45 2045
45 2140
45 2224
45 2226
45 2395
45 2398
45 2411
45 2445
45 2446
45 2478
45 2491
45 2564
45 2571
45 2596
45 2665
45 2668
45 2678
45 2687
45 2708
45 2773
45 2795
45 2863
45 2890
45 2941
45 2977
45 2981
45 3039
45 3056
45 3062
45 3137
45 3141
45 3242
45 3277
45 3392
45 3394
45 3420
45 3439
45 3684
45 3692
45 3714
45 3776
45 3874
45 3905
45 3920
45 3934
45 3937
45 4023
45 4164
45 4212
45 4302
45 4381
45 4407
45 4413
45 4457
45 4532
45 4574
45 4700
45 4944
45 4946
45 4994
45 5055
45 5078
45 5102
45 5103
45 5171
45 5276
45 5310
45 5387
45 5464
45 5542
45 5556
45 5571
45 5594
45 5665
45 5686
45 5713
45 5925
45 5990
45 5993
45 6027
45 6151
45 6165
45 6186
45 6354
45 6414
45 6448
45 6472
45 6538
45 6557
45 6585
45 6635
45 6712
45 6718
45 6747
45 6787
45 6801
45 6896
45 6923
45 6933
45 6993
45 7059
45 7070
45 7125
45 7267
45 7280
45 7396
45 7409
45 7450
45 7569
45 7710
45 7767
45 7865
45 7878
45 7894
45 7992
45 8010
45 8082
45 8089
45 8162
45 8230
45 8261
45 8285
45 8307
45 8334
45 8335
45 8345
45 8380
45 8382
45 8480
45 8508
45 8576
45 8653
45 8747
45 8809
45 8816
45 8854
45 8899
45 8979
45 8985
45 8987
45 9025
45 9033
45 9120
45 9165
45 9192
45 9254
45 9390
45 9401
45 9423
45 9487
45 9494
45 9523
45 9530
45 9647
45 9714
45 9741
45 9877
45 9954
46 51
46 52
46 54
46 57
46 77
46 89
46 95
46 99
46 114
46 123
46 128
46 141
46 147
46 151
46 165
46 166
46 193
46 205
46 212
46 220
46 236
46 237
46 239
46 286
46 314
46 329
46 336
46 340
46 355
46 358
46 366
46 393
46 395
46 421
46 423
46 425
46 432
46 466
46 489
46 504
46 619
46 659
46 697
46 721
46 883
46 935
46 947
46 1085
46 1129
46 1175
46 1181
46 1187
46 1211
46 1338
46 1344
46 1370
46 1465
46 1481
46 1485
46 1495
46 1521
46 1539
46 1544
46 1616
46 1621
46 1635
46 1784
46 1794
46 1812
46 1825
46 1854
46 1865
46 1887
46 1939
46 1977
46 1994
46 2006
46 2023
46 2088
46 2145
46 2158
46 2165
46 2222
46 2350
46 2503
46 2548
46 2550
46 2559
46 2584
46 2601
46 2661
46 2704
46 2777
46 2896
46 3005
46 3063
46 3131
46 3193
46 3256
46 3262
46 3324
46 3423
46 3472
46 3480
46 3621
46 3644
46 3661
46 3706
46 3735
46 3736
46 3758
46 3838
46 3911
46 4221
46 4390
46 4416
46 4538
46 4575
46 4683
46 4706
46 4834
46 4901
46 4952
46 5095
46 5304
46 5307
46 5315
46 5316
46 5480
46 5513
46 5640
46 5657
46 5974
46 6014
46 6049
46 6240
46 6244
46 6283
46 6295
46 6366
46 6576
46 6618
46 6756
46 6793
46 6876
46 6908
46 6981
46 7232
46 7292
46 7346
46 7400
46 7431
46 7463
46 7562
46 7616
46 7713
46 7736
46 7873
46 8113
46 8272
46 8479
46 8528
46 8541
46 8567
46 8859
46 8902
46 8989
46 9002
46 9034
46 9060
46 9063
46 9092
46 9132
46 9281
46 9424
46 9585
46 9617
46 9712
46 9863
47 48
47 66
47 68
47 74
47 225
47 230
47 245
47 262
47 332
47 339
47 349
47 367
47 381
47 401
47 408
47 443
47 459
47 462
47 470
47 480
47 481
47 503
47 542
47 544
47 609
47 612
47 615
47 683
47 701
47 761
47 798
47 824
47 832
47 839
47 864
47 888
47 975
47 1095
47 1132
47 1173
47 1213
47 1235
47 1240
47 1246
47 1275
47 1308
47 1351
47 1427
47 1483
47 1556
47 1561
47 1582
47 1583
47 1614
47 1635
47 1884
47 1890
47 1918
47 1919
47 1926
47 1969
47 1996
47 2147
47 2154
47 2177
47 2217
47 2286
47 2301
47 2368
47 2369
47 2373
47 2389
47 2546
47 2648
47 2675
47 2698
47 2786
47 2812
47 2867
47 2906
47 3005
47 3108
47 3118
47 3172
47 3207
47 3371
47 3507
47 3539
47 3586
47 3620
47 3878
47 3911
47 3923
47 3952
47 3968
47 3998
47 4055
47 4071
47 4096
47 4111
47 4197
47 4249
47 4299
47 4571
47 4641
47 4660
47 4686
47 4780
47 4890
47 4958
47 4963
47 5016
47 5247
47 5255
47 5362
47 5481
47 5832
47 6043
47 6133
47 6192
47 6407
47 6506
47 6557
47 6565
47 6681
47 6731
47 6757
47 7018
47 7080
47 7110
47 7306
47 7331
47 7470
47 7533
47 7663
47 7741
47 7767
47 7837
47 8182
47 8248
47 8324
47 8381
47 8465
47 8534
47 8764
47 8837
47 8843
47 8892
47 8972
47 9003
47 9221
47 9228
47 9320
47 9479
47 9498
47 9564
47 9759
47 9906
48 54
48 61
48 64
48 71
48 82
48 99
48 104
48 106
48 110
48 112
48 113
48 118
48 127
48 158
48 195
48 216
48 231
48 285
48 303
48 325
48 334
48 378
48 408
48 421
48 428
48 437
48 444
48 464
48 465
48 508
48 532
48 582
48 613
48 654
48 753
48 760
48 773
48 776
48 784
48 796
48 812
48 813
48 815
48 835
48 850
48 858
48 860
48 916
48 927
48 935
48 938
48 954
48 957
48 980
48 986
48 987
48 1046
48 1053
48 1180
48 1196
48 1232
48 1241
48 1250
48 1267
48 1335
48 1392
48 1452
48 1471
48 1537
48 1558
48 1577
48 1623
48 1647
48 1759
48 1783
48 1870
48 1892
48 1995
48 2004
48 2040
48 2095
48 2208
48 2253
48 2269
48 2317
48 2369
48 2412
48 2455
48 2457
48 2512
48 2552
48 2553
48 2564
48 2567
48 2586
48 2598
48 2653
48 2673
48 2688
48 2799
48 2808
48 2826
48 2969
48 2972
48 3056
48 3144
48 3151
48 3158
48 3173
48 3365
48 3400
48 3428
48 3481
48 3505
48 3628
48 3796
48 3926
48 3939
48 3967
48 4002
48 4039
48 4044
48 4168
48 4401
48 4439
48 4484
48 4526
48 4553
48 4634
48 4646
48 4667
48 4768
48 4775
48 4942
48 4951
48 5019
48 5303
48 5626
48 5663
48 5751
48 5871
48 5956
48 6272
48 6290
48 6294
48 6303
48 6327
48 6366
48 6400
48 6476
48 6682
48 6920
48 6974
48 7050
48 7105
48 7203
48 7258
48 7389
48 7538
48 7581
48 7802
48 7813
48 7814
48 7870
48 7894
48 7923
48 7963
48 8176
48 8193
48 8223
48 8421
48 8505
48 8837
48 8891
48 8906
48 9193
48 9266
48 9480
48 9541
48 9691
48 9832
48 9877
49 52
49 56
49 62
49 106
49 152
49 171
49 201
49 219
49 220
49 224
49 248
49 252
49 258
49 303
49 393
49 402
49 418
49 452
49 455
49 473
49 502
49 599
49 611
49 623
49 685
49 793
49 815
49 933
49 1086
49 1128
49 1212
49 1255
49 1286
49 1295
49 1336
49 1339
49 1348
49 1374
49 1440
49 1583
49 1651
49 1654
49 1666
49 1680
49 1688
49 1725
49 1726
49 1767
49 1826
49 1877
49 1946
49 2166
49 2184
49 2249
49 2275
49 2327
49 2413
49 2538
49 2810
49 2866
49 2953
49 3028
49 3033
49 3081
49 3155
49 3217
49 3311
49 3388
49 3447
49 3559
49 3722
49 3770
49 3773
49 3829
49 3937
49 4089
49 4121
49 4145
49 4269
49 4313
49 4415
49 4441
49 4548
49 4592
49 4930
49 5010
49 5126
49 5206
49 5255
49 5376
49 5520
49 5526
49 5613
49 5617
49 5660
49 5784
49 5951
49 6117
49 6161
49 6328
49 6339
49 6498
49 6654
49 6675
49 6766
49 6798
49 6911
49 7059
49 7078
49 7079
49 7297
49 7398
49 7821
49 7828
49 7990
49 8180
49 8242
49 8399
49 8499
49 8555
49 8806
49 9382
49 9504
49 9909
49 9956
49 9971
50 67
50 109
50 116
50 144
50 163
50 173
50 188
50 192
50 202
50 247
50 251
50 261
50 266
50 267
50 269
50 280
50 295
50 303
50 331
50 335
50 340
50 396
50 401
50 434
50 573
50 574
50 587
50 593
50 715
50 761
50 898
50 921
50 954
50 990
50 1002
50 1059
50 1186
50 1216
50 1444
50 1448
50 1480
50 1692
50 1693
50 1721
50 1792
50 1829
50 2018
50 2040
50 2056
50 2089
50 2094
50 2439
50 2581
50 2714
50 2759
50 2797
50 2821
50 2919
50 2937
50 3005
50 3032
50 3055
50 3111
50 3181
50 3257
50 3304
50 3323
50 3407
50 3437
50 3519
50 3862
50 3917
50 3957
50 3958
50 4108
50 4208
50 4274
50 4355
50 4419
50 4434
50 4495
50 4524
50 4530
50 4694
50 4887
50 4961
50 5139
50 5245
50 5369
50 5491
50 5561
50 5674
50 5702
50 5720
50 5882
50 6250
50 6419
50 6422
50 6475
50 6512
50 6538
50 6545
50 6650
50 6706
50 6881
50 7038
50 7158
50 7177
50 7244
50 7450
50 7648
50 7796
50 7846
50 7850
50 7988
50 8014
50 8091
50 8393
50 8929
50 8933
50 8959
50 9012
50 9047
50 9089
50 9115
50 9210
50 9354
50 9423
50 9677
50 9847
51 54
51 73
51 84
51 92
51 98
51 108
51 111
51 146
51 196
51 245
51 253
51 263
51 285
51 308
51 319
51 320
51 325
51 337
51 347
51 378
51 379
51 409
51 411
51 413
51 422
51 445
51 484
51 522
51 590
51 594
51 607
51 610
51 625
51 631
51 646
51 666
51 688
51 740
51 862
51 866
51 891
51 979
51 985
51 1052
51 1081
51 1146
51 1156
51 1323
51 1387
51 1396
51 1628
51 1661
51 1810
51 1963
51 1967
51 2111
51 2115
51 2143
51 2215
51 2338
51 2489
51 2501
51 2510
51 2711
51 2718
51 2756
51 2784
51 2849
51 2899
51 2927
51 2954
51 3052
51 3130
51 3268
51 3414
51 3481
51 3589
51 3705
51 3815
51 4083
51 4084
51 4251
51 4271
51 4328
51 4610
51 4758
51 4863
51 4929
51 5038
51 5042
51 5136
51 5405
51 5469
51 5515
51 5661
51 5669
51 5776
51 5867
51 5887
51 5894
51 5955
51 6022
51 6203
51 6241
51 6250
51 6385
51 6914
51 7107
51 7115
51 7129
51 7135
51 7391
51 7649
51 7724
51 7784
51 7808
51 8037
51 8057
51 8138
51 8179
51 8252
51 8387
51 8572
51 8660
51 8789
51 8823
51 8938
51 9049
51 9120
51 9156
51 9409
51 9523
51 9687
51 9975
52 55
52 59
52 61
52 62
52 81
52 88
52 90
52 100
52 114
52 116
52 136
52 152
52 172
52 173
52 217
52 261
52 285
52 302
52 311
52 367
52 374
52 398
52 401
52 404
52 412
52 474
52 500
52 502
52 531
52 581
52 588
52 591
52 654
52 672
52 728
52 778
52 780
52 843
52 847
52 849
52 854
52 870
52 902
52 961
52 981
52 985
52 1001
52 1013
52 1032
52 1090
52 1108
52 1168
52 1184
52 1185
52 1189
52 1272
52 1295
52 1325
52 1357
52 1369
52 1424
52 1445
52 1468
52 1551
52 1576
52 1577
52 1585
52 1622
52 1648
52 1670
52 1702
52 1731
52 1774
52 1897
52 1958
52 1996
52 2001
52 2012
52 2028
52 2044
52 2052
52 2066
52 2074
52 2228
52 2236
52 2280
52 2306
52 2318
52 2375
52 2385
52 2391
52 2592
52 2626
52 2704
52 2719
52 2741
52 2812
52 2996
52 3020
52 3133
52 3146
52 3186
52 3201
52 3217
52 3283
52 3455
52 3457
52 3505
52 3517
52 3575
52 3669
52 3753
52 3803
52 3840
52 3856
52 3875
52 3922
52 3970
52 4225
52 4289
52 4390
52 4470
52 4497
52 4503
52 4529
52 4562
52 4640
52 4709
52 4827
52 4865
52 5020
52 5173
52 5225
52 5250
52 5294
52 5299
52 5531
52 5663
52 5858
52 5925
52 6063
52 6182
52 6418
52 6485
52 6504
52 6510
52 6568
52 6695
52 6854
52 7022
52 7072
52 7111
52 7113
52 7141
52 7155
52 7255
52 7384
52 7426
52 7460
52 7467
52 7543
52 7735
52 7775
52 7787
52 7791
52 7846
52 7904
52 7920
52 7967
52 8062
52 8710
52 8902
52 9126
52 9425
52 9475
52 9516
52 9543
52 9564
52 9579
52 9609
52 9682
52 9690
52 9781
52 9915
52 9945
52 9984
53 60
53 61
53 63
53 68
53 75
53 82
53 86
53 139
53 155
53 160
53 166
53 176
53 201
53 203
53 204
53 216
53 220
53 238
53 250
53 273
53 275
53 284
53 290
53 304
53 316
53 343
53 350
53 369
53 386
53 392
53 430
53 443
53 482
53 521
53 577
53 586
53 619
53 639
53 652
53 660
53 707
53 722
53 724
53 754
53 767
53 781
53 794
53 834
53 857
53 864
53 917
53 943
53 963
53 992
53 1001
53 1018
53 1029
53 1031
53 1047
53 1060
53 1151
53 1156
53 1179
53 1187
53 1208
53 1249
53 1255
53 1280
53 1283
53 1331
53 1359
53 1368
53 1409
53 1410
53 1422
53 1503
53 1535
53 1612
53 1707
53 1763
53 1799
53 1818
53 1952
53 1965
53 1987
53 2063
53 2075
53 2076
53 2114
53 2165
53 2212
53 2326
53 2349
53 2439
53 2447
53 2574
53 2575
53 2590
53 2625
53 2690
53 2742
53 2814
53 2817
53 2827
53 2863
53 2943
53 3075
53 3178
53 3276
53 3283
53 3287
53 3340
53 3508
53 3527
53 3570
53 3583
53 3753
53 3784
53 3852
53 3886
53 3905
53 3997
53 4000
53 4002
53 4127
53 4235
53 4296
53 4418
53 4578
53 4581
53 4797
53 4807
53 4828
53 4835
53 5014
53 5028
53 5058
53 5096
53 5214
53 5300
53 5307
53 5320
53 5654
53 5768
53 5781
53 5786
53 5811
53 5841
53 5889
53 5905
53 5941
53 5998
53 6053
53 6082
53 6108
53 6149
53 6197
53 6205
53 6310
53 6495
53 6508
53 6572
53 6576
53 6586
53 6650
53 6757
53 6776
53 6784
53 6794
53 6799
53 6839
53 6932
53 6959
53 7035
53 7048
53 7094
53 7124
53 7308
53 7312
53 7318
53 7377
53 7443
53 7459
53 7546
53 7548
53 7652
53 7737
53 7791
53 7927
53 8061
53 8156
53 8182
53 8184
53 8202
53 8215
53 8275
53 8326
53 8473
53 8511
53 8520
53 9119
53 9131
53 9176
53 9204
53 9219
53 9321
53 9353
53 9521
53 9712
53 9822
53 9869
53 9874
53 9887
54 62
54 70
54 82
54 85
54 88
54 89
54 92
54 97
54 105
54 115
54 118
54 190
54 227
54 235
54 240
54 266
54 269
54 294
54 298
54 304
54 319
54 323
54 372
54 377
54 436
54 438
54 464
54 478
54 499
54 503
54 521
54 544
54 562
54 585
54 618
54 620
54 646
54 673
54 730
54 773
54 782
54 799
54 804
54 819
54 841
54 881
54 884
54 886
54 896
54 909
54 946
54 953
54 955
54 959
54 968
54 972
54 973
54 1030
54 1049
54 1060
54 1266
54 1293
54 1370
54 1412
54 1435
54 1446
54 1498
54 1536
54 1597
54 1626
54 1639
54 1730
54 1745
54 1751
54 1825
54 1826
54 1846
54 1895
54 1940
54 2128
54 2196
54 2425
54 2523
54 2582
54 2651
54 2711
54 2882
54 2936
54 2945
54 2972
54 3220
54 3222
54 3234
54 3327
54 3333
54 3342
54 3347
54 3377
54 3475
54 3720
54 3723
54 3832
54 3909
54 3915
54 3919
54 4040
54 4045
54 4150
54 4161
54 4285
54 4286
54 4303
54 4307
54 4397
54 4536
54 4653
54 4741
54 4832
54 4863
54 4869
54 4980
54 5124
54 5182
54 5282
54 5345
54 5353
54 5439
54 5509
54 5519
54 5656
54 5781
54 5800
54 5819
54 5933
54 6007
54 6057
54 6256
54 6310
54 6350
54 6353
54 6354
54 6492
54 6626
54 6666
54 6730
54 6735
54 6997
54 7040
54 7063
54 7079
54 7101
54 7132
54 7162
54 7165
54 7259
54 7333
54 7389
54 7412
54 7591
54 7597
54 7805
54 7870
54 7975
54 8072
54 8153
54 8175
54 8247
54 8560
54 8906
54 8916
54 9089
54 9286
54 9566
54 9608
54 9634
54 9997
55 57
55 61
55 73
55 81
55 103
55 105
55 139
55 176
55 187
55 205
55 207
55 246
55 390
55 465
55 517
55 577
55 609
55 673
55 697
55 704
55 707
55 758
55 829
55 939
55 949
55 962
55 977
55 979
55 980
55 1035
55 1080
55 1192
55 1237
55 1244
55 1325
55 1528
55 1547
55 1589
55 1659
55 1687
55 1703
55 1716
55 1734
55 1763
55 1776
55 1820
55 1852
55 1897
55 1996
55 2040
55 2116
55 2119
55 2211
55 2289
55 2294
55 2308
55 2315
55 2342
55 2470
55 2472
55 2552
55 2581
55 2591
55 2649
55 2663
55 2724
55 2726
55 2732
55 2734
55 2784
55 2827
55 2829
55 3021
55 3077
55 3100
55 3128
55 3308
55 3381
55 3498
55 3554
55 3635
55 3647
55 3780
55 3798
55 3940
55 4027
55 4115
55 4153
55 4221
55 4370
55 4477
55 4569
55 4771
55 4783
55 4796
55 5157
55 5251
55 5326
55 5592
55 5598
55 5680
55 5733
55 5816
55 5860
55 6031
55 6504
55 6519
55 6523
55 6637
55 6786
55 6890
55 6914
55 7055
55 7080
55 7115
55 7133
55 7267
55 7313
55 7491
55 7677
55 7983
55 8002
55 8110
55 8287
55 8294
55 8339
55 8527
55 8597
55 8631
55 8721
55 8838
55 8842
55 8997
55 9014
55 9032
55 9280
55 9538
55 9688
55 9871
56 64
56 94
56 95
56 100
56 104
56 108
56 115
56 130
56 135
56 268
56 293
56 309
56 310
56 317
56 318
56 436
56 439
56 452
56 486
56 512
56 591
56 674
56 683
56 687
56 739
56 752
56 835
56 895
56 941
56 958
56 1094
56 1142
56 1186
56 1250
56 1278
56 1354
56 1492
56 1499
56 1513
56 1613
56 1665
56 1692
56 1724
56 1776
56 1789
56 1909
56 2047
56 2343
56 2360
56 2370
56 2372
56 2407
56 2418
56 2637
56 2764
56 2887
56 2943
56 2997
56 3013
56 3232
56 3270
56 3429
56 3587
56 3691
56 3894
56 3935
56 3969
56 4068
56 4082
56 4108
56 4109
56 4122
56 4351
56 4363
56 4557
56 4777
56 4784
56 4867
56 4934
56 4943
56 5004
56 5100
56 5145
56 5195
56 5736
56 5848
56 5881
56 6164
56 6165
56 6211
56 6259
56 6370
56 6504
56 6638
56 6835
56 6901
56 7047
56 7195
56 7237
56 7383
56 7393
56 7421
56 7737
56 7852
56 8097
56 8114
56 8150
56 8209
56 8358
56 8393
56 8548
56 8736
56 8927
56 8982
56 8997
56 9030
56 9132
56 9539
56 9708
56 9712
56 9969
57 63
57 66
57 70
57 71
57 88
57 101
57 115
57 122
57 128
57 171
57 201
57 247
57 256
57 302
57 312
57 313
57 352
57 359
57 446
57 596
57 630
57 632
57 652
57 663
57 689
57 707
57 712
57 725
57 846
57 875
57 905
57 970
57 1060
57 1077
57 1111
57 1265
57 1335
57 1567
57 1657
57 1765
57 1791
57 1875
57 1887
57 1888
57 1912
57 1965
57 2021
57 2148
57 2498
57 2501
57 2621
57 2949
57 3002
57 3099
57 3329
57 3351
57 3446
57 3570
57 3698
57 3813
57 3878
57 4118
57 4305
57 4396
57 4523
57 4581
57 4825
57 4965
57 5085
57 5165
57 5383
57 5440
57 5621
57 5744
57 6126
57 6359
57 6562
57 6931
57 7282
57 7427
57 7550
57 7611
57 7672
57 7815
57 8208
57 8468
57 8628
57 8676
57 8959
57 9442
57 9647
58 61
58 73
58 80
58 107
58 117
58 130
58 158
58 170
58 171
58 179
58 180
58 184
58 223
58 252
58 343
58 347
58 353
58 361
58 370
58 441
58 471
58 584
58 784
58 799
58 806
58 818
58 823
58 844
58 856
58 890
58 921
58 934
58 995
58 1067
58 1084
58 1111
58 1229
58 1241
58 1333
58 1416
58 1495
58 1540
58 1660
58 1746
58 1778
58 2021
58 2047
58 2063
58 2220
58 2300
58 2374
58 2449
58 2522
58 2543
58 2686
58 2760
58 2764
58 2820
58 2835
58 2994
58 3072
58 3264
58 3358
58 3460
58 3497
58 3580
58 3650
58 3686
58 3705
58 3936
58 4105
58 4152
58 4176
58 4193
58 4243
58 4252
58 4326
58 4448
58 4488
58 4537
58 5099
58 5120
58 5194
58 5254
58 5646
58 5770
58 5922
58 6025
58 6067
58 6112
58 6198
58 6258
58 6266
58 6296
58 6299
58 6316
58 6549
58 6668
58 6735
58 6817
58 6853
58 7066
58 7270
58 7507
58 7733
58 7746
58 7943
58 7964
58 8091
58 8170
58 8268
58 8445
58 8470
58 8841
58 9056
58 9205
58 9316
58 9347
58 9564
58 9671
59 62
59 70
59 72
59 76
59 97
59 103
59 107
59 111
59 119
59 120
59 127
59 135
59 149
59 150
59 165
59 181
59 217
59 233
59 273
59 282
59 333
59 334
59 341
59 378
59 381
59 405
59 422
59 433
59 445
59 469
59 532
59 587
59 596
59 613
59 631
59 685
59 716
59 718
59 787
59 791
59 801
59 907
59 994
59 1166
59 1174
59 1193
59 1286
59 1321
59 1335
59 1345
59 1360
59 1442
59 1483
59 1490
59 1522
59 1540
59 1541
59 1590
59 1601
59 1607
59 1621
59 1650
59 1682
59 1927
59 2057
59 2135
59 2140
59 2269
59 2280
59 2287
59 2327
59 2340
59 2365
59 2478
59 2496
59 2513
59 2521
59 2527
59 2728
59 2753
59 2817
59 2834
59 2941
59 2942
59 3131
59 3174
59 3187
59 3199
59 3222
59 3267
59 3301
59 3382
59 3524
59 3565
59 3600
59 3806
59 3915
59 3959
59 3961
59 3977
59 4027
59 4219
59 4279
59 4335
59 4429
59 4456
59 4643
59 4676
59 4722
59 4741
59 4744
59 4827
59 4870
59 4910
59 4913
59 5078
59 5101
59 5250
59 5418
59 5466
59 5597
59 5671
59 5712
59 5762
59 5802
59 5822
59 5885
59 5901
59 6005
59 6103
59 6105
59 6106
59 6161
59 6276
59 6289
59 6294
59 6304
59 6384
59 6476
59 6617
59 6721
59 6730
59 6760
59 6771
59 6810
59 6984
59 7171
59 7216
59 7281
59 7285
59 7332
59 7428
59 7533
59 7604
59 7622
59 7820
59 7897
59 7933
59 8220
59 8296
59 8305
59 8590
59 8658
59 8830
59 9533
59 9575
59 9589
59 9887
59 9899
60 71
60 89
60 93
60 106
60 160
60 242
60 331
60 359
60 374
60 443
60 457
60 479
60 560
60 597
60 629
60 764
60 841
60 970
60 973
60 1047
60 1061
60 1139
60 1231
60 1295
60 1376
60 1572
60 1582
60 2027
60 2045
60 2233
60 2254
60 2501
60 2534
60 2597
60 2623
60 2697
60 2755
60 2789
60 2854
60 2859
60 2986
60 3223
60 3363
60 3375
60 3786
60 3949
60 4070
60 4172
60 4216
60 4312
60 4374
60 4438
60 4536
60 4551
60 4557
60 4708
60 4888
60 5205
60 5218
60 5478
60 6306
60 6483
60 6787
60 6831
60 6952
60 7086
60 7628
60 7633
60 7894
60 8026
60 8203
60 8255
60 8395
60 8400
60 8786
60 8832
60 8946
60 9365
60 9443
60 9669
61 69
61 102
61 162
61 184
61 189
61 204
61 235
61 324
61 354
61 463
61 476
61 494
61 576
61 590
61 660
61 667
61 756
61 763
61 766
61 804
61 811
61 858
61 894
61 1044
61 1089
61 1131
61 1138
61 1245
61 1412
61 1429
61 1505
61 1555
61 1655
61 1660
61 1724
61 1919
61 1934
61 2011
61 2085
61 2227
61 2252
61 2268
61 2302
61 2396
61 2398
61 2408
61 2443
61 2484
61 2522
61 2769
61 2808
61 3013
61 3132
61 3239
61 3532
61 3598
61 3777
61 4050
61 4182
61 4755
61 4865
61 4922
61 4926
61 4930
61 4984
61 5177
61 5237
61 5398
61 5411
61 5543
61 5598
61 5706
61 5723
61 5956
61 6606
61 6959
61 7009
61 7169
61 7405
61 7489
61 7603
61 7665
61 7957
61 8155
61 8216
61 8486
61 8538
61 8751
61 8777
61 8839
61 8855
61 8870
61 9627
62 73
62 95
62 100
62 116
62 120
62 224
62 244
62 285
62 381
62 404
62 406
62 438
62 456
62 515
62 592
62 614
62 641
62 716
62 928
62 1015
62 1018
62 1125
62 1186
62 1305
62 1347
62 1433
62 1474
62 1484
62 1493
62 1555
62 1575
62 1637
62 1654
62 1722
62 1867
62 1962
62 2000
62 2050
62 2072
62 2119
62 2142
62 2248
62 2373
62 2402
62 2637
62 2827
62 2955
62 2984
62 3045
62 3112
62 3442
62 3447
62 3506
62 3673
62 3704
62 3887
62 3999
62 4076
62 4211
62 4258
62 4401
62 4508
62 4743
62 4891
62 5236
62 5239
62 5243
62 5357
62 5503
62 5575
62 5580
62 5902
62 5949
62 6100
62 6121
62 6132
62 6177
62 6235
62 6272
62 6316
62 6540
62 6547
62 6668
62 6706
62 6729
62 6781
62 7138
62 7193
62 7297
62 7601
62 7735
62 8311
62 8351
62 8769
62 9061
62 9427
62 9576
63 77
63 82
63 108
63 122
63 201
63 218
63 279
63 370
63 379
63 431
63 490
63 491
63 694
63 718
63 807
63 845
63 859
63 979
63 1074
63 1232
63 1276
63 1338
63 1406
63 1525
63 1597
63 1648
63 1696
63 1699
63 1764
63 1826
63 1868
63 1907
63 1944
63 1949
63 2014
63 2149
63 2394
63 2425
63 2792
63 2937
63 2960
63 3183
63 3271
63 3374
63 3774
63 4334
63 4461
63 4489
63 4491
63 4675
63 4710
63 5048
63 5198
63 5293
63 5557
63 5892
63 6322
63 6502
63 6606
63 7050
63 7077
63 7230
63 7595
63 8499
63 9372
64 68
64 76
64 78
64 110
64 140
64 145
64 192
64 222
64 239
64 244
64 261
64 302
64 311
64 338
64 343
64 369
64 371
64 398
64 425
64 462
64 551
64 592
64 624
64 767
64 779
64 801
64 814
64 884
64 949
64 982
64 1068
64 1125
64 1237
64 1262
64 1365
64 1482
64 1505
64 1662
64 1664
64 1670
64 1769
64 1781
64 1801
64 1845
64 1870
64 1929
64 1968
64 2017
64 2179
64 2191
64 2303
64 2392
64 2484
64 2515
64 2536
64 2599
64 2636
64 2657
64 2791
64 2817
64 2858
64 2859
64 2887
64 2956
64 3068
64 3350
64 3387
64 3554
64 3626
64 3642
64 3674
64 3691
64 3764
64 4003
64 4173
64 4196
64 4470
64 4480
64 4517
64 4606
64 4644
64 4697
64 4861
64 5038
64 5179
64 5356
64 5376
64 5814
64 5932
64 5934
64 5968
64 6242
64 6360
64 6461
64 6546
64 6566
64 6578
64 6657
64 6659
64 6830
64 7164
64 7443
64 7459
64 7535
64 7563
64 7752
64 8087
64 8088
64 8249
64 8388
64 8417
64 8445
64 8662
64 8752
64 8814
64 8815
64 8989
64 9125
64 9138
64 9141
64 9545
64 9562
64 9680
64 9698
64 9771
64 9810
65 86
65 95
65 104
65 119
65 120
65 122
65 141
65 144
65 145
65 174
65 190
65 192
65 196
65 210
65 222
65 233
65 253
65 269
65 283
65 292
65 313
65 315
65 324
65 326
65 327
65 332
65 360
65 362
65 372
65 377
65 379
65 390
65 400
65 402
65 434
65 442
65 444
65 451
65 472
65 486
65 503
65 523
65 536
65 583
65 634
65 648
65 670
65 671
65 682
65 706
65 711
65 737
65 844
65 867
65 883
65 894
65 918
65 998
65 1037
65 1045
65 1092
65 1118
65 1142
65 1148
65 1153
65 1193
65 1265
65 1268
65 1288
65 1318
65 1324
65 1325
65 1326
65 1342
65 1344
65 1351
65 1368
65 1392
65 1399
65 1428
65 1433
65 1436
65 1441
65 1523
65 1589
65 1622
65 1651
65 1683
65 1686
65 1728
65 1761
65 1778
65 1832
65 1848
65 1856
65 1934
65 1979
65 1990
65 1995
65 2000
65 2033
65 2118
65 2288
65 2378
65 2494
65 2514
65 2537
65 2596
65 2603
65 2605
65 2700
65 2710
65 2822
65 2834
65 2867
65 2911
65 2946
65 2974
65 3022
65 3088
65 3397
65 3402
65 3466
65 3517
65 3518
65 3525
65 3558
65 3580
65 3715
65 3772
65 3839
65 3980
65 4177
65 4179
65 4189
65 4201
65 4369
65 4435
65 4466
65 4517
65 4547
65 4608
65 4700
65 4725
65 4804
65 4815
65 4870
65 4945
65 4996
65 5084
65 5209
65 5266
65 5273
65 5279
65 5375
65 5460
65 5473
65 5504
65 5747
65 5772
65 5777
65 5782
65 6017
65 6102
65 6104
65 6434
65 6500
65 6597
65 6660
65 6693
65 6764
65 6883
65 6922
65 6951
65 7003
65 7054
65 7089
65 7232
65 7258
65 7594
65 7602
65 7657
65 7705
65 7859
65 7872
65 7913
65 8011
65 8155
65 8192
65 8219
65 8265
65 8309
65 8463
65 8467
65 8556
65 8651
65 8810
65 8811
65 8813
65 8928
65 8981
65 9006
65 9085
65 9172
65 9212
65 9263
65 9319
65 9327
65 9388
65 9490
65 9535
65 9820
65 9825
65 9951
66 72
66 73
66 75
66 78
66 84
66 98
66 104
66 115
66 126
66 129
66 131
66 134
66 150
66 166
66 185
66 196
66 221
66 230
66 241
66 277
66 288
66 296
66 343
66 421
66 428
66 513
66 530
66 546
66 567
66 629
66 744
66 792
66 873
66 905
66 1019
66 1044
66 1058
66 1100
66 1163
66 1402
66 1411
66 1441
66 1442
66 1471
66 1505
66 1514
66 1517
66 1518
66 1608
66 1628
66 1692
66 1743
66 1832
66 1840
66 1864
66 1955
66 2034
66 2105
66 2132
66 2277
66 2306
66 2415
66 2452
66 2503
66 2577
66 2686
66 2706
66 2818
66 2823
66 2923
66 3109
66 3118
66 3184
66 3229
66 3439
66 3477
66 3497
66 3530
66 3532
66 3723
66 3853
66 3911
66 4041
66 4092
66 4119
66 4132
66 4220
66 4295
66 4331
66 4349
66 4354
66 4381
66 4412
66 4668
66 4899
66 4900
66 4973
66 5033
66 5062
66 5155
66 5294
66 5384
66 5504
66 5569
66 5812
66 5865
66 5876
66 5914
66 5942
66 6128
66 6130
66 6313
66 6393
66 6545
66 6622
66 6696
66 6728
66 6902
66 6926
66 7054
66 7123
66 7307
66 7464
66 7532
66 7634
66 7867
66 8380
66 8441
66 8779
66 8850
66 8861
66 8886
66 9193
66 9368
66 9403
66 9576
66 9709
66 9892
66 9982
66 9993
67 68
67 81
67 161
67 172
67 177
67 195
67 219
67 241
67 291
67 312
67 321
67 405
67 462
67 493
67 550
67 597
67 696
67 746
67 750
67 796
67 919
67 1082
67 1090
67 1145
67 1220
67 1350
67 1375
67 1434
67 1685
67 1692
67 1999
67 2614
67 2975
67 3037
67 3131
67 3161
67 3246
67 3290
67 3348
67 3380
67 3409
67 3599
67 3609
67 3682
67 3940
67 4624
67 4677
67 4678
67 4688
67 4696
67 5198
67 5492
67 5641
67 5694
67 5723
67 5958
67 6144
67 6235
67 6366
67 6460
67 7973
67 8103
67 8214
67 8306
67 8322
67 8820
67 8867
67 9063
67 9363
67 9507
67 9606
67 9680
67 9850
68 79
68 90
68 105
68 115
68 118
68 131
68 138
68 156
68 157
68 174
68 177
68 181
68 189
68 217
68 237
68 241
68 257
68 265
68 267
68 281
68 297
68 326
68 338
68 363
68 368
68 375
68 407
68 424
68 476
68 543
68 551
68 616
68 659
68 687
68 708
68 711
68 752
68 770
68 772
68 821
68 834
68 859
68 875
68 899
68 971
68 1004
68 1006
68 1009
68 1058
68 1062
68 1073
68 1074
68 1080
68 1150
68 1191
68 1309
68 1362
68 1365
68 1376
68 1399
68 1476
68 1482
68 1508
68 1515
68 1564
68 1566
68 1571
68 1585
68 1752
68 1777
68 1841
68 1844
68 1874
68 1884
68 1904
68 1906
68 2003
68 2092
68 2138
68 2149
68 2176
68 2185
68 2284
68 2325
68 2337
68 2357
68 2366
68 2492
68 2644
68 2686
68 2709
68 2779
68 2978
68 3042
68 3075
68 3153
68 3222
68 3274
68 3339
68 3342
68 3376
68 3519
68 3539
68 3720
68 3729
68 3783
68 3889
68 3909
68 3919
68 3978
68 3988
68 4036
68 4079
68 4084
68 4128
68 4135
68 4157
68 4192
68 4385
68 4386
68 4509
68 4592
68 4593
68 4707
68 4829
68 4840
68 4914
68 4926
68 4935
68 5038
68 5180
68 5258
68 5301
68 5331
68 5341
68 5410
68 5537
68 5539
68 5692
68 5808
68 5823
68 5834
68 6038
68 6047
68 6064
68 6113
68 6145
68 6286
68 6362
68 6448
68 6485
68 6705
68 6720
68 6738
68 6754
68 6798
68 6870
68 7078
68 7087
68 7101
68 7314
68 7333
68 7538
68 7550
68 7699
68 7702
68 7758
68 7838
68 7999
68 8065
68 8153
68 8724
68 9013
68 9034
68 9436
68 9596
68 9715
68 9790
68 9951
69 74
69 92
69 141
69 149
69 181
69 233
69 267
69 288
69 325
69 426
69 485
69 500
69 542
69 565
69 710
69 746
69 864
69 942
69 1003
69 1100
69 1221
69 1339
69 1411
69 1419
69 1439
69 1453
69 1538
69 1658
69 1892
69 1906
69 1914
69 1945
69 2115
69 2250
69 2373
69 2425
69 2473
69 2535
69 2622
69 2633
69 2668
69 2713
69 2916
69 2991
69 3190
69 3351
69 3392
69 3522
69 3543
69 3752
69 3965
69 3980
69 4084
69 4346
69 4672
69 4725
69 4811
69 5482
69 5592
69 5759
69 5864
69 6159
69 6162
69 6221
69 6435
69 6512
69 6577
69 6721
69 6814
69 7303
69 7439
69 7742
69 7886
69 7999
69 8066
69 8222
69 8267
69 8405
69 8777
69 8887
69 8889
69 9008
69 9339
69 9610
70 84
70 87
70 117
70 126
70 166
70 167
70 193
70 228
70 242
70 258
70 263
70 273
70 280
70 376
70 384
70 397
70 448
70 457
70 462
70 472
70 494
70 496
70 698
70 743
70 752
70 873
70 874
70 893
70 911
70 921
70 926
70 935
70 938
70 1104
70 1162
70 1167
70 1190
70 1192
70 1262
70 1322
70 1343
70 1377
70 1472
70 1475
70 1596
70 1713
70 1771
70 2315
70 2352
70 2383
70 2428
70 2441
70 2549
70 2592
70 2607
70 2864
70 2920
70 2988
70 3014
70 3078
70 3085
70 3151
70 3211
70 3288
70 3325
70 3468
70 3584
70 3671
70 3673
70 3768
70 3769
70 3809
70 3893
70 4043
70 4048
70 4122
70 4209
70 4261
70 4318
70 4490
70 4661
70 4739
70 4776
70 4838
70 5070
70 5076
70 5136
70 5240
70 5415
70 5613
70 6045
70 6062
70 6096
70 6110
70 6121
70 6146
70 6233
70 6344
70 6435
70 6589
70 6687
70 6703
70 6874
70 7545
70 7659
70 7794
70 8029
70 8078
70 8195
70 8315
70 8349
70 8445
70 8566
70 8688
70 8748
70 9136
70 9400
70 9509
70 9675
70 9759
70 9966
71 89
71 116
71 123
71 132
71 146
71 162
71 179
71 191
71 207
71 271
71 301
71 354
71 365
71 457
71 475
71 505
71 584
71 691
71 695
71 931
71 1029
71 1061
71 1242
71 1558
71 1572
71 1686
71 1766
71 1780
71 1801
71 2015
71 2036
71 2085
71 2234
71 2288
71 2403
71 2517
71 2706
71 3007
71 3033
71 3131
71 3140
71 3306
71 3325
71 3427
71 3510
71 3567
71 3575
71 3602
71 3618
71 3621
71 3666
71 3727
71 3807
71 3844
71 3970
71 4028
71 4452
71 4784
71 4842
71 4858
71 4975
71 5215
71 5447
71 5932
71 5992
71 6923
71 6947
71 6981
71 7065
71 7109
71 7293
71 7413
71 7489
71 7581
71 7717
71 7995
71 8131
71 8202
71 8669
71 8814
71 9077
71 9139
71 9193
71 9218
71 9518
71 9651
71 9835
72 193
72 245
72 349
72 358
72 382
72 417
72 505
72 724
72 811
72 969
72 1009
72 1071
72 1138
72 1211
72 1418
72 1485
72 1542
72 1581
72 1691
72 1748
72 1931
72 2267
72 2280
72 2367
72 2379
72 2911
72 3142
72 3175
72 3821
72 3902
72 3925
72 4381
72 4399
72 4441
72 4552
72 4759
72 4831
72 4898
72 5133
72 5476
72 5701
72 6333
72 6391
72 6909
72 7109
72 7143
72 7286
72 7956
72 7967
72 8794
72 8866
72 9128
72 9271
72 9336
72 9448
72 9587
72 9764
72 9998
72 485
73 82
73 96
73 109
73 138
73 143
73 151
73 156
73 163
73 188
73 195
73 254
73 295
73 350
73 370
73 372
73 392
73 446
73 467
73 482
73 512
73 537
73 542
73 596
73 597
73 626
73 638
73 646
73 700
73 719
73 772
73 925
73 987
73 1006
73 1036
73 1056
73 1086
73 1112
73 1208
73 1301
73 1336
73 1423
73 1458
73 1528
73 1733
73 1771
73 1784
73 1791
73 1806
73 1828
73 1842
73 1869
73 2008
73 2030
73 2114
73 2289
73 2321
73 2466
73 2505
73 2580
73 2692
73 2717
73 2899
73 3098
73 3445
73 3572
73 3604
73 3708
73 3709
73 3824
73 3870
73 4065
73 4109
73 4543
73 4629
73 4766
73 4807
73 5059
73 5071
73 5232
73 5264
73 5420
73 5780
73 5798
73 5911
73 6078
73 6225
73 6347
73 6443
73 6481
73 6490
73 6661
73 6705
73 6912
73 6980
73 7008
73 7081
73 7308
73 7374
73 7462
73 7679
73 8181
73 8199
73 8308
73 8327
73 8554
73 8685
73 8949
73 9051
73 9240
73 9349
73 9707
73 9789
73 9835
74 97
74 112
74 155
74 188
74 208
74 212
74 216
74 236
74 264
74 331
74 374
74 400
74 423
74 466
74 559
74 565
74 571
74 641
74 746
74 877
74 1045
74 1204
74 1253
74 1313
74 1349
74 1400
74 1487
74 1577
74 1729
74 1742
74 1760
74 1820
74 1830
74 1944
74 2033
74 2238
74 2294
74 2359
74 2479
74 2542
74 2613
74 2703
74 2746
74 2803
74 2967
74 3052
74 3067
74 3230
74 3292
74 3890
74 3904
74 3910
74 4140
74 4214
74 4793
74 4929
74 5003
74 5044
74 5241
74 5376
74 5441
74 5691
74 5897
74 5947
74 6391
74 6588
74 6646
74 6719
74 6802
74 6936
74 6992
74 7098
74 7402
74 7535
74 7865
74 7962
74 7976
74 8293
74 8381
74 8437
74 8599
74 8616
74 8796
74 8977
74 9406
74 9879
74 9908
75 133
75 158
75 193
75 246
75 260
75 305
75 408
75 412
75 436
75 458
75 504
75 532
75 562
75 577
75 595
75 625
75 661
75 717
75 733
75 752
75 807
75 808
75 816
75 857
75 938
75 948
75 960
75 1040
75 1078
75 1111
75 1130
75 1175
75 1200
75 1249
75 1373
75 1449
75 1511
75 1600
75 1666
75 1670
75 1920
75 1963
75 1996
75 2007
75 2281
75 2312
75 2375
75 2393
75 2413
75 2417
75 2465
75 2649
75 2703
75 2808
75 2987
75 3025
75 3111
75 3227
75 3549
75 3620
75 4176
75 4181
75 4295
75 4582
75 4639
75 4696
75 4779
75 4805
75 4888
75 4977
75 5064
75 5084
75 5352
75 5482
75 5520
75 5634
75 5999
75 6013
75 6102
75 6217
75 6262
75 6267
75 6530
75 6578
75 6677
75 6832
75 6904
75 6989
75 7119
75 7235
75 7267
75 7641
75 7730
75 7912
75 8434
75 8561
75 9085
75 9308
75 9532
75 9544
75 9958
75 9980
76 91
76 106
76 109
76 119
76 133
76 150
76 186
76 226
76 231
76 235
76 240
76 279
76 306
76 318
76 366
76 391
76 410
76 454
76 459
76 549
76 556
76 566
76 632
76 785
76 850
76 896
76 900
76 935
76 961
76 1141
76 1173
76 1308
76 1359
76 1380
76 1460
76 1542
76 1660
76 1703
76 1827
76 1944
76 1964
76 1984
76 2134
76 2211
76 2258
76 2539
76 2603
76 2618
76 2648
76 2695
76 2816
76 2822
76 2947
76 3021
76 3216
76 3362
76 3482
76 3576
76 3886
76 4057
76 4127
76 4178
76 4351
76 4681
76 4765
76 4901
76 5095
76 5149
76 5238
76 5428
76 5603
76 5658
76 5717
76 6374
76 6399
76 6528
76 6805
76 6821
76 6843
76 6860
76 7572
76 7587
76 7842
76 7982
76 8037
76 8188
76 8249
76 8808
76 8878
76 8889
76 9106
76 9246
76 9734
77 83
77 86
77 93
77 103
77 106
77 137
77 140
77 162
77 183
77 190
77 261
77 322
77 333
77 404
77 414
77 460
77 485
77 522
77 529
77 536
77 558
77 580
77 610
77 613
77 628
77 670
77 708
77 724
77 773
77 890
77 893
77 931
77 982
77 1034
77 1104
77 1270
77 1275
77 1378
77 1382
77 1391
77 1431
77 1525
77 1547
77 1668
77 1834
77 1850
77 1861
77 1909
77 1965
77 1983
77 1986
77 2212
77 2246
77 2292
77 2552
77 2622
77 2693
77 2775
77 2784
77 2831
77 2845
77 2921
77 2922
77 3400
77 3539
77 3808
77 4005
77 4030
77 4037
77 4344
77 4635
77 4769
77 4943
77 4960
77 5050
77 5129
77 5221
77 5235
77 5259
77 5261
77 5343
77 5375
77 5680
77 5753
77 6311
77 6392
77 6449
77 6854
77 6922
77 7118
77 7180
77 7182
77 7561
77 7696
77 7798
77 7866
77 8355
77 8478
77 8635
77 8702
77 8710
77 8728
77 8841
77 9353
77 9679
77 9827
78 90
78 93
78 94
78 161
78 165
78 168
78 177
78 268
78 269
78 307
78 316
78 317
78 323
78 327
78 355
78 382
78 405
78 469
78 474
78 525
78 598
78 636
78 645
78 650
78 664
78 679
78 755
78 809
78 822
78 850
78 868
78 907
78 929
78 959
78 1036
78 1040
78 1068
78 1105
78 1136
78 1208
78 1237
78 1242
78 1249
78 1381
78 1391
78 1408
78 1418
78 1446
78 1504
78 1651
78 1702
78 1731
78 1748
78 1771
78 1951
78 2187
78 2196
78 2224
78 2282
78 2467
78 2897
78 2919
78 2977
78 3104
78 3320
78 3356
78 3398
78 3461
78 3490
78 3594
78 3609
78 3633
78 3643
78 3679
78 3869
78 4138
78 4572
78 4667
78 4729
78 4749
78 4776
78 4875
78 4937
78 5189
78 5343
78 5349
78 5351
78 5353
78 5469
78 5890
78 6134
78 6242
78 6330
78 6564
78 6617
78 6618
78 6754
78 6967
78 7171
78 7373
78 7565
78 7692
78 8168
78 8213
78 8231
78 8305
78 8371
78 8659
78 8750
78 8830
78 8948
78 9078
78 9123
78 9230
78 9333
78 9451
78 9504
78 9581
78 9607
78 9670
78 9901
79 141
79 143
79 151
79 166
79 214
79 228
79 231
79 233
79 412
79 419
79 432
79 498
79 553
79 614
79 651
79 755
79 810
79 844
79 941
79 993
79 1151
79 1202
79 1206
79 1223
79 1326
79 1956
79 2002
79 2014
79 2251
79 2296
79 2388
79 2460
79 2470
79 2577
79 2792
79 2817
79 3292
79 3517
79 3691
79 4138
79 4359
79 4675
79 4918
79 5128
79 5184
79 5238
79 5305
79 5314
79 5686
79 5752
79 5943
79 5999
79 6062
79 6114
79 6389
79 7008
79 7045
79 7178
79 7621
79 7969
79 8412
79 9178
79 9388
80 84
80 88
80 102
80 109
80 116
80 145
80 184
80 209
80 212
80 231
80 239
80 264
80 305
80 310
80 313
80 346
80 355
80 364
80 383
80 495
80 506
80 516
80 553
80 555
80 688
80 740
80 787
80 793
80 819
80 839
80 845
80 911
80 914
80 942
80 1023
80 1111
80 1145
80 1176
80 1246
80 1259
80 1267
80 1286
80 1328
80 1364
80 1452
80 1559
80 1590
80 1610
80 1854
80 1975
80 2131
80 2490
80 2572
80 2594
80 2654
80 2744
80 2780
80 2876
80 2894
80 3087
80 3133
80 3591
80 3611
80 4131
80 4178
80 4226
80 4271
80 4388
80 4459
80 4518
80 4535
80 4538
80 4546
80 4622
80 4673
80 4675
80 4857
80 5024
80 5031
80 5255
80 5268
80 5430
80 5486
80 5505
80 5585
80 5694
80 5722
80 6173
80 6201
80 6364
80 6579
80 7013
80 7029
80 7283
80 7539
80 7655
80 7710
80 7808
80 7909
80 7915
80 8090
80 8152
80 8280
80 8412
80 8758
80 8787
80 8804
80 9161
80 9182
80 9186
80 9411
80 9451
80 9476
80 9867
80 9953
80 9978
81 85
81 88
81 97
81 139
81 141
81 152
81 163
81 171
81 172
81 175
81 194
81 237
81 241
81 258
81 259
81 261
81 275
81 320
81 333
81 347
81 352
81 353
81 376
81 395
81 402
81 413
81 455
81 486
81 492
81 506
81 515
81 533
81 549
81 556
81 588
81 630
81 651
81 655
81 658
81 659
81 664
81 670
81 690
81 739
81 742
81 758
81 777
81 807
81 828
81 898
81 901
81 904
81 910
81 941
81 991
81 995
81 1008
81 1019
81 1026
81 1033
81 1039
81 1080
81 1084
81 1094
81 1110
81 1113
81 1147
81 1164
81 1168
81 1179
81 1205
81 1219
81 1249
81 1266
81 1272
81 1302
81 1317
81 1330
81 1333
81 1358
81 1483
81 1497
81 1551
81 1569
81 1598
81 1642
81 1649
81 1655
81 1671
81 1698
81 1714
81 1767
81 1795
81 1844
81 1853
81 1855
81 1867
81 1868
81 1877
81 1886
81 1907
81 1973
81 1997
81 2014
81 2042
81 2171
81 2202
81 2289
81 2420
81 2716
81 2723
81 2725
81 2802
81 2831
81 2871
81 2945
81 2964
81 2992
81 3015
81 3046
81 3065
81 3090
81 3130
81 3180
81 3264
81 3319
81 3396
81 3438
81 3493
81 3496
81 3546
81 3563
81 3586
81 3590
81 3598
81 3602
81 3629
81 3652
81 3785
81 3798
81 3812
81 3823
81 3832
81 3842
81 3844
81 3950
81 4083
81 4154
81 4201
81 4272
81 4276
81 4278
81 4313
81 4350
81 4402
81 4532
81 4656
81 4725
81 4726
81 4889
81 4985
81 5016
81 5110
81 5158
81 5171
81 5197
81 5201
81 5226
81 5346
81 5439
81 5446
81 5460
81 5518
81 5603
81 5669
81 5671
81 5731
81 5762
81 5901
81 5940
81 6034
81 6098
81 6178
81 6196
81 6257
81 6287
81 6655
81 6722
81 6962
81 7211
81 7340
81 7472
81 7654
81 7702
81 7706
81 7767
81 7782
81 7802
81 7824
81 7864
81 7869
81 8048
81 8070
81 8226
81 8242
81 8273
81 8339
81 8350
81 8427
81 8450
81 8475
81 8604
81 8660
81 8705
81 8745
81 8775
81 8783
81 8806
81 8856
81 8859
81 8867
81 8949
81 8973
81 8993
81 9284
81 9328
81 9343
81 9357
81 9580
81 9767
81 9829
81 9860
81 9892
81 9940
82 98
82 148
82 292
82 397
82 402
82 456
82 881
82 1168
82 1367
82 1440
82 1492
82 1533
82 1784
82 1881
82 1955
82 2056
82 2236
82 2332
82 2446
82 2596
82 2778
82 2795
82 2824
82 2922
82 3253
82 3485
82 3513
82 4087
82 4134
82 4143
82 4189
82 4853
82 4996
82 5208
82 5571
82 6412
82 7494
82 7700
82 7842
82 8093
82 8296
82 9103
82 9192
82 9375
82 9905
82 9984
83 108
83 111
83 117
83 183
83 206
83 212
83 251
83 294
83 340
83 388
83 457
83 466
83 536
83 544
83 575
83 612
83 649
83 855
83 862
83 911
83 940
83 956
83 1014
83 1120
83 1169
83 1194
83 1332
83 1446
83 1512
83 1634
83 1658
83 1797
83 1837
83 1987
83 2009
83 2281
83 2488
83 2634
83 2637
83 2672
83 2812
83 2874
83 3076
83 3176
83 3198
83 3222
83 3243
83 3268
83 3541
83 3562
83 4046
83 4520
83 4552
83 4570
83 4912
83 5160
83 5203
83 5313
83 5371
83 5396
83 5646
83 5762
83 6118
83 6299
83 6447
83 6716
83 7302
83 7605
83 7998
83 8093
83 8250
83 8271
83 8507
83 8593
83 8944
83 9319
83 9423
83 9873
83 9893
84 119
84 120
84 121
84 160
84 170
84 235
84 312
84 318
84 403
84 404
84 420
84 531
84 584
84 650
84 836
84 894
84 966
84 988
84 1032
84 1039
84 1073
84 1154
84 1194
84 1322
84 1433
84 1548
84 1685
84 1688
84 1814
84 1858
84 2052
84 2106
84 2605
84 2768
84 2860
84 2893
84 2989
84 3048
84 3062
84 3242
84 3439
84 3583
84 3610
84 3910
84 3917
84 4130
84 4349
84 4368
84 4456
84 4522
84 4620
84 4669
84 4701
84 4799
84 4804
84 5417
84 5618
84 5653
84 5817
84 5947
84 6111
84 6146
84 6217
84 6290
84 6541
84 6642
84 6707
84 6783
84 6860
84 6903
84 6999
84 7229
84 7416
84 7593
84 7791
84 8012
84 8059
84 8174
84 8273
84 8284
84 8399
84 8438
84 8536
84 8786
84 9268
84 9530
84 9553
84 9769
84 9846
84 9929
85 124
85 125
85 143
85 156
85 162
85 198
85 206
85 232
85 241
85 263
85 283
85 306
85 410
85 416
85 541
85 679
85 807
85 826
85 909
85 916
85 999
85 1001
85 1102
85 1184
85 1308
85 1699
85 1729
85 1756
85 2072
85 2097
85 2226
85 2387
85 2525
85 2555
85 2582
85 2597
85 2625
85 2629
85 2893
85 2939
85 2957
85 3019
85 3076
85 3084
85 3173
85 3386
85 3572
85 3651
85 3682
85 3713
85 3824
85 3865
85 3945
85 3978
85 4023
85 4042
85 4124
85 4136
85 4362
85 4374
85 4378
85 4712
85 4789
85 5278
85 5333
85 5346
85 5374
85 5629
85 5656
85 5687
85 5813
85 6095
85 6132
85 6197
85 6211
85 6260
85 6324
85 6495
85 6524
85 6708
85 6835
85 7065
85 7151
85 7228
85 7317
85 7398
85 7685
85 7787
85 7855
85 8182
85 8239
85 8256
85 8406
85 8421
85 8952
85 9395
85 9494
85 9839
86 87
86 113
86 136
86 176
86 265
86 274
86 285
86 308
86 314
86 383
86 419
86 424
86 481
86 579
86 622
86 753
86 776
86 976
86 977
86 1031
86 1076
86 1186
86 1260
86 1511
86 1557
86 1600
86 1746
86 2042
86 2147
86 2236
86 2271
86 2316
86 2526
86 2585
86 2745
86 2817
86 2890
86 3050
86 3080
86 3542
86 3785
86 3992
86 4135
86 4173
86 4443
86 4551
86 4569
86 5305
86 5518
86 6082
86 6191
86 6497
86 6704
86 7571
86 7605
86 8025
86 8597
86 8709
86 9023
86 9462
86 9979
87 94
87 96
87 111
87 114
87 147
87 220
87 264
87 357
87 415
87 459
87 520
87 562
87 622
87 707
87 725
87 867
87 975
87 1141
87 1199
87 1656
87 1691
87 1766
87 1821
87 1924
87 2154
87 2210
87 2268
87 2455
87 2664
87 2828
87 3035
87 3238
87 3427
87 3573
87 3756
87 3953
87 4299
87 4579
87 4687
87 4928
87 5136
87 5157
87 5286
87 6559
87 6850
87 7826
87 8333
87 9328
88 116
88 157
88 231
88 240
88 274
88 490
88 517
88 521
88 555
88 592
88 734
88 740
88 771
88 894
88 912
88 937
88 1066
88 1113
88 1194
88 1268
88 1434
88 1437
88 1444
88 1491
88 1507
88 1570
88 1636
88 1759
88 1770
88 1905
88 1920
88 1975
88 2107
88 2169
88 2289
88 2516
88 2546
88 2608
88 2802
88 2830
88 2951
88 3094
88 3214
88 3316
88 3360
88 3376
88 3377
88 3452
88 3605
88 3678
88 3693
88 3714
88 3748
88 3749
88 3762
88 3785
88 3859
88 3901
88 3947
88 3949
88 4002
88 4152
88 4205
88 4257
88 4284
88 4298
88 4329
88 4350
88 4474
88 4629
88 4643
88 4773
88 4826
88 4850
88 4858
88 5062
88 5129
88 5543
88 5548
88 5741
88 5773
88 5928
88 6013
88 6022
88 6371
88 6571
88 7129
88 7338
88 7356
88 7451
88 7716
88 7821
88 7850
88 7928
88 8065
88 8146
88 8366
88 8368
88 8697
88 8713
88 8882
88 9002
88 9009
88 9046
88 9285
89 124
89 183
89 223
89 315
89 441
89 469
89 597
89 669
89 692
89 701
89 733
89 762
89 838
89 904
89 950
89 1034
89 1064
89 1085
89 1258
89 1336
89 1424
89 1483
89 1535
89 1745
89 1800
89 1853
89 1876
89 2043
89 2291
89 2391
89 2520
89 2561
89 2734
89 2824
89 2843
89 3048
89 3170
89 3318
89 3411
89 3550
89 3670
89 3842
89 3930
89 4136
89 4219
89 4522
89 4702
89 4763
89 4837
89 5106
89 5119
89 5288
89 5289
89 5640
89 5789
89 5873
89 6060
89 6771
89 6930
89 6994
89 7415
89 7419
89 8152
89 8257
89 8343
89 8447
89 8512
89 9130
89 9368
89 9583
89 9614
90 101
90 102
90 121
90 146
90 175
90 183
90 307
90 308
90 356
90 361
90 380
90 401
90 410
90 433
90 489
90 593
90 735
90 758
90 804
90 809
90 828
90 913
90 983
90 1128
90 1281
90 1350
90 1378
90 1387
90 1436
90 1632
90 1681
90 1841
90 1873
90 1959
90 2018
90 2224
90 2277
90 2294
90 2345
90 2370
90 2380
90 2952
90 3314
90 3456
90 3505
90 3525
90 3580
90 3761
90 3826
90 3914
90 4167
90 4235
90 4281
90 4374
90 4431
90 4574
90 4724
90 4793
90 4985
90 4986
90 5054
90 5074
90 5151
90 5372
90 5385
90 5532
90 5573
90 5653
90 5659
90 5709
90 5722
90 5990
90 6020
90 6545
90 6655
90 6862
90 7354
90 7383
90 7625
90 7862
90 8149
90 8552
90 8709
90 8782
90 8792
90 8911
90 9397
90 9449
90 9841
90 9923
91 97
91 126
91 135
91 188
91 191
91 199
91 207
91 224
91 237
91 294
91 336
91 386
91 418
91 454
91 458
91 470
91 501
91 503
91 551
91 570
91 601
91 614
91 626
91 660
91 764
91 767
91 798
91 833
91 842
91 857
91 888
91 911
91 951
91 1027
91 1051
91 1096
91 1210
91 1280
91 1283
91 1303
91 1442
91 1464
91 1528
91 1541
91 1542
91 1605
91 1705
91 1726
91 1739
91 1995
91 2004
91 2111
91 2127
91 2139
91 2246
91 2301
91 2460
91 2548
91 2600
91 2645
91 2686
91 2768
91 2776
91 2904
91 2916
91 3007
91 3047
91 3179
91 3193
91 3244
91 3252
91 3253
91 3335
91 3336
91 3348
91 3443
91 3473
91 3485
91 3511
91 3684
91 3752
91 3800
91 3893
91 3903
91 4100
91 4104
91 4139
91 4215
91 4461
91 4499
91 4505
91 4554
91 4968
91 4971
91 5209
91 5220
91 5419
91 5465
91 5499
91 5531
91 5555
91 5811
91 5829
91 5848
91 5860
91 6012
91 6035
91 6153
91 6269
91 6801
91 6813
91 6883
91 6941
91 7001
91 7015
91 7038
91 7386
91 7683
91 7867
91 7910
91 8015
91 8100
91 8135
91 8164
91 8207
91 8338
91 8435
91 8485
91 8494
91 8505
91 8624
91 8641
91 8646
91 8700
91 8933
91 8947
91 9076
91 9081
91 9116
91 9243
91 9244
91 9324
91 9454
91 9543
92 149
92 150
92 234
92 246
92 308
92 332
92 396
92 426
92 432
92 454
92 457
92 468
92 473
92 477
92 530
92 549
92 597
92 686
92 854
92 928
92 929
92 937
92 946
92 1066
92 1092
92 1106
92 1363
92 1473
92 1534
92 1726
92 1776
92 1869
92 1990
92 2002
92 2073
92 2139
92 2232
92 2342
92 2346
92 2557
92 2569
92 2719
92 2733
92 2759
92 2832
92 2852
92 3055
92 3112
92 3156
92 3203
92 3407
92 3688
92 3985
92 4117
92 4204
92 4283
92 4499
92 4514
92 4538
92 4586
92 4777
92 4864
92 5043
92 5650
92 5691
92 5700
92 6020
92 6071
92 6317
92 6748
92 7201
92 7210
92 7298
92 7394
92 7563
92 7571
92 7683
92 7793
92 7997
92 8162
92 8203
92 8210
92 8834
92 9016
92 9137
92 9156
92 9328
92 9411
92 9518
92 9571
92 9633
92 9784
93 123
93 125
93 161
93 183
93 206
93 208
93 217
93 229
93 264
93 273
93 348
93 375
93 387
93 420
93 437
93 480
93 498
93 575
93 583
93 686
93 736
93 863
93 885
93 929
93 1038
93 1214
93 1215
93 1375
93 1414
93 1492
93 1581
93 1603
93 1819
93 2026
93 2092
93 2155
93 2163
93 2209
93 2352
93 2414
93 2428
93 2462
93 2727
93 2733
93 2747
93 2968
93 3071
93 3107
93 3184
93 3229
93 3316
93 3517
93 3651
93 3868
93 3884
93 3952
93 4040
93 4102
93 4169
93 4262
93 4486
93 5019
93 5205
93 5516
93 5522
93 5614
93 5821
93 5847
93 5895
93 5965
93 6253
93 6277
93 6307
93 6358
93 6404
93 6499
93 6558
93 6628
93 6790
93 7190
93 7337
93 7720
93 7775
93 7810
93 7945
93 8057
93 8262
93 8376
93 8549
93 8598
93 8641
93 8821
93 9097
93 9137
93 9251
93 9255
93 9354
93 9488
93 9868
93 9972
94 125
94 135
94 144
94 162
94 175
94 230
94 232
94 233
94 279
94 303
94 318
94 322
94 337
94 379
94 418
94 420
94 435
94 453
94 461
94 471
94 474
94 495
94 511
94 543
94 586
94 633
94 746
94 857
94 907
94 919
94 950
94 960
94 976
94 977
94 1014
94 1140
94 1196
94 1234
94 1240
94 1267
94 1304
94 1337
94 1343
94 1399
94 1446
94 1478
94 1485
94 1659
94 1779
94 1781
94 1813
94 1843
94 1921
94 1932
94 1971
94 1985
94 2075
94 2103
94 2206
94 2216
94 2232
94 2261
94 2267
94 2551
94 2577
94 2605
94 2638
94 2667
94 2724
94 2761
94 2822
94 2841
94 2863
94 2875
94 2889
94 3083
94 3103
94 3153
94 3221
94 3259
94 3276
94 3323
94 3431
94 3438
94 3452
94 3605
94 3682
94 3731
94 3737
94 3778
94 3811
94 3922
94 4112
94 4412
94 4594
94 4618
94 4620
94 4706
94 4730
94 4731
94 4775
94 4816
94 5071
94 5156
94 5191
94 5201
94 5532
94 5777
94 6029
94 6055
94 6079
94 6101
94 6131
94 6157
94 6227
94 6258
94 6365
94 6523
94 6555
94 6654
94 6801
94 6872
94 6938
94 7112
94 7308
94 7442
94 7517
94 7573
94 7618
94 7636
94 7693
94 7699
94 7712
94 8222
94 8226
94 8303
94 8330
94 8386
94 8752
94 8788
94 8927
94 8958
94 9161
94 9419
94 9513
94 9600
94 9605
94 9866
94 9939
95 103
95 124
95 142
95 149
95 164
95 172
95 180
95 189
95 262
95 263
95 264
95 276
95 281
95 294
95 303
95 321
95 360
95 364
95 407
95 408
95 454
95 567
95 570
95 774
95 777
95 977
95 983
95 1034
95 1091
95 1207
95 1225
95 1351
95 1368
95 1434
95 1473
95 1476
95 1647
95 1731
95 1740
95 1851
95 1859
95 1890
95 1923
95 1935
95 2016
95 2023
95 2054
95 2131
95 2146
95 2166
95 2201
95 2433
95 2540
95 2699
95 2813
95 2825
95 2918
95 3156
95 3168
95 3282
95 3333
95 3343
95 3402
95 3487
95 3711
95 3873
95 3884
95 3949
95 3957
95 4011
95 4144
95 4176
95 4483
95 4492
95 4547
95 4680
95 4702
95 4718
95 5042
95 5064
95 5096
95 5111
95 5134
95 5164
95 5247
95 5287
95 5342
95 5533
95 5536
95 5759
95 5762
95 5886
95 5915
95 6005
95 6218
95 6528
95 6530
95 6809
95 6949
95 7052
95 7078
95 7142
95 7330
95 7721
95 8470
95 8556
95 8601
95 8692
95 9698
95 9791
95 9974
96 107
96 116
96 138
96 144
96 166
96 179
96 192
96 200
96 213
96 217
96 221
96 246
96 257
96 258
96 260
96 263
96 277
96 315
96 329
96 369
96 380
96 426
96 446
96 453
96 495
96 499
96 617
96 647
96 684
96 688
96 751
96 779
96 789
96 817
96 820
96 838
96 853
96 856
96 886
96 899
96 955
96 978
96 1115
96 1126
96 1191
96 1271
96 1282
96 1316
96 1328
96 1343
96 1473
96 1509
96 1574
96 1587
96 1647
96 1694
96 1717
96 1732
96 1828
96 1840
96 1870
96 1910
96 2083
96 2101
96 2172
96 2174
96 2234
96 2341
96 2348
96 2433
96 2450
96 2613
96 2618
96 2634
96 2755
96 2765
96 3069
96 3124
96 3142
96 3158
96 3270
96 3323
96 3606
96 3774
96 3822
96 3835
96 3920
96 4036
96 4219
96 4302
96 4439
96 4542
96 4590
96 4715
96 5018
96 5057
96 5212
96 5266
96 5333
96 5356
96 5437
96 5586
96 5605
96 5663
96 5879
96 5932
96 6262
96 6312
96 6426
96 6439
96 6450
96 6499
96 6506
96 6842
96 6857
96 6919
96 6959
96 7028
96 7094
96 7183
96 7273
96 7460
96 7505
96 7532
96 7697
96 8275
96 8454
96 8754
96 8769
96 8974
96 9037
96 9052
96 9330
96 9341
96 9551
96 9873
97 105
97 110
97 123
97 140
97 149
97 161
97 182
97 213
97 234
97 281
97 289
97 290
97 307
97 383
97 412
97 446
97 471
97 498
97 500
97 546
97 580
97 585
97 593
97 663
97 696
97 698
97 702
97 709
97 778
97 883
97 1008
97 1043
97 1141
97 1313
97 1601
97 1681
97 1802
97 1939
97 2005
97 2023
97 2142
97 2152
97 2342
97 2351
97 2366
97 2391
97 2475
97 2620
97 2784
97 2843
97 2855
97 2894
97 2903
97 2974
97 3095
97 3146
97 3267
97 3268
97 3341
97 3408
97 3441
97 3512
97 3633
97 3636
97 3645
97 3787
97 3962
97 3987
97 4011
97 4099
97 4639
97 4892
97 4921
97 4998
97 5258
97 5379
97 5429
97 5526
97 5620
97 5745
97 5902
97 6735
97 6759
97 6779
97 6814
97 6825
97 6853
97 6925
97 7005
97 7026
97 7320
97 7429
97 7493
97 7541
97 7799
97 8086
97 8172
97 8279
97 8785
97 9024
97 9367
97 9651
97 9919
97 9968
97 9992
97 1680
98 103
98 210
98 256
98 263
98 271
98 340
98 438
98 452
98 521
98 604
98 607
98 745
98 801
98 1046
98 1089
98 1099
98 1149
98 1182
98 1213
98 1306
98 1697
98 1941
98 2120
98 2357
98 2453
98 2615
98 2636
98 2824
98 2875
98 3036
98 3206
98 3386
98 3409
98 3755
98 3951
98 4002
98 4231
98 4287
98 4295
98 4318
98 4598
98 5205
98 5293
98 5391
98 5484
98 5903
98 6025
98 6406
98 6452
98 6662
98 6727
98 6803
98 6819
98 7053
98 7063
98 7277
98 7441
98 7698
98 7700
98 7832
98 7942
98 8289
98 8386
98 8494
98 8499
98 8695
98 8771
98 8803
98 8811
98 8857
98 9019
98 9027
98 9286
98 9346
98 9401
98 9425
98 9739
98 9923
99 107
99 136
99 160
99 170
99 175
99 197
99 244
99 248
99 271
99 319
99 327
99 328
99 389
99 391
99 395
99 417
99 451
99 503
99 635
99 643
99 663
99 672
99 708
99 808
99 845
99 874
99 880
99 983
99 1139
99 1140
99 1141
99 1190
99 1257
99 1289
99 1314
99 1432
99 1454
99 1488
99 1620
99 1716
99 1772
99 1813
99 1909
99 1927
99 1948
99 1969
99 1974
99 2012
99 2016
99 2072
99 2150
99 2298
99 2370
99 2405
99 2435
99 2503
99 2542
99 2623
99 2708
99 2882
99 2996
99 3083
99 3180
99 3275
99 3285
99 3289
99 3484
99 3494
99 3921
99 3989
99 4120
99 4522
99 4523
99 4758
99 5138
99 5217
99 5219
99 5302
99 5420
99 5529
99 5595
99 5817
99 5845
99 5950
99 6366
99 6691
99 6840
99 6878
99 7297
99 7338
99 7424
99 7455
99 7807
99 8009
99 8448
99 8625
99 9016
99 9208
99 9234
99 9406
99 9516
99 9581
99 9653
99 9867
100 111
100 113
100 125
100 132
100 137
100 144
100 155
100 170
100 194
100 199
100 200
100 202
100 219
100 257
100 267
100 300
100 641
100 728
100 741
100 774
100 800
100 866
100 875
100 905
100 1245
100 1352
100 1499
100 1620
100 1639
100 1705
100 1707
100 1753
100 1830
100 1940
100 2193
100 2319
100 2357
100 2382
100 2446
100 2641
100 2687
100 2725
100 2782
100 2821
100 2909
100 2910
100 3237
100 3371
100 3839
100 3937
100 3943
100 3966
100 4004
100 4019
100 4220
100 4299
100 4377
100 4420
100 4492
100 4599
100 4652
100 5105
100 5399
100 5449
100 5527
100 5545
100 6131
100 6186
100 6218
100 6640
100 6837
100 6962
100 7002
100 7190
100 7320
100 7366
100 7626
100 7631
100 7649
100 8033
100 8758
100 8832
100 8968
100 9081
100 9306
100 9815
101 131
101 154
101 171
101 178
101 194
101 360
101 662
101 678
101 808
101 819
101 829
101 879
101 972
101 1167
101 1181
101 1189
101 1264
101 1328
101 1458
101 1487
101 1519
101 1598
101 1627
101 1713
101 1733
101 1804
101 1927
101 2104
101 2274
101 2328
101 2359
101 2412
101 2413
101 2477
101 2494
101 2628
101 2656
101 2688
101 2815
101 2966
101 3006
101 3180
101 3320
101 3493
101 3948
101 4148
101 4162
101 4313
101 4472
101 4616
101 4666
101 4747
101 4754
101 4774
101 4887
101 4905
101 4922
101 5253
101 5263
101 5280
101 5390
101 5475
101 5816
101 5896
101 6039
101 6129
101 6147
101 6269
101 6572
101 6611
101 6812
101 7167
101 7365
101 7645
101 7794
101 7999
101 8086
101 8355
101 8450
101 8456
101 8500
101 8670
101 8715
101 8936
101 8942
101 8973
101 9069
101 9072
101 9170
101 9732
101 9931
101 9959
101 9997
102 124
102 131
102 134
102 135
102 142
102 152
102 156
102 202
102 214
102 275
102 312
102 335
102 354
102 417
102 456
102 461
102 462
102 488
102 501
102 515
102 581
102 647
102 659
102 679
102 713
102 716
102 808
102 879
102 1057
102 1063
102 1136
102 1155
102 1172
102 1243
102 1346
102 1358
102 1368
102 1425
102 1489
102 1629
102 1641
102 1684
102 1764
102 1785
102 1798
102 1816
102 1830
102 2007
102 2014
102 2030
102 2052
102 2067
102 2157
102 2173
102 2252
102 2278
102 2378
102 2407
102 2505
102 2759
102 2985
102 3021
102 3158
102 3243
102 3256
102 3269
102 3273
102 3298
102 3302
102 3323
102 3387
102 3550
102 3577
102 3656
102 3685
102 3710
102 3830
102 3886
102 3975
102 4036
102 4038
102 4058
102 4122
102 4139
102 4164
102 4196
102 4284
102 4316
102 4320
102 4466
102 4479
102 4512
102 4573
102 4659
102 4710
102 4777
102 4782
102 4784
102 4799
102 4824
102 4866
102 4933
102 4941
102 5208
102 5317
102 5586
102 5591
102 5729
102 5982
102 5983
102 6034
102 6102
102 6103
102 6179
102 6192
102 6329
102 6449
102 6809
102 7003
102 7052
102 7085
102 7214
102 7365
102 7637
102 7900
102 8068
102 8559
102 8797
102 8825
102 8833
102 9251
102 9299
102 9465
102 9675
102 9716
102 9814
102 9874
103 106
103 116
103 132
103 143
103 180
103 186
103 188
103 199
103 211
103 336
103 358
103 417
103 488
103 499
103 529
103 607
103 626
103 637
103 650
103 657
103 685
103 700
103 763
103 794
103 795
103 906
103 915
103 989
103 1070
103 1131
103 1157
103 1227
103 1371
103 1388
103 1399
103 1404
103 1483
103 1556
103 1577
103 1613
103 1683
103 1937
103 1948
103 1976
103 2087
103 2124
103 2217
103 2230
103 2298
103 2307
103 2380
103 2520
103 2527
103 2546
103 2698
103 2716
103 2730
103 2744
103 2793
103 2834
103 2884
103 3103
103 3104
103 3174
103 3245
103 3437
103 3452
103 3552
103 3630
103 3807
103 3868
103 3891
103 4048
103 4167
103 4208
103 4310
103 4425
103 4439
103 4462
103 4509
103 4762
103 4779
103 4787
103 4816
103 4829
103 4883
103 5037
103 5090
103 5138
103 5194
103 5255
103 5287
103 5302
103 5693
103 6313
103 6412
103 6469
103 6620
103 6702
103 6870
103 6886
103 7012
103 7045
103 7058
103 7067
103 7171
103 7178
103 7212
103 7342
103 7564
103 7632
103 7689
103 7888
103 7953
103 8022
103 8512
103 8610
103 8646
103 8683
103 8763
103 8835
103 8892
103 8941
103 9000
103 9170
103 9293
103 9358
103 9372
103 9614
103 9800
103 9941
104 156
104 157
104 159
104 172
104 243
104 249
104 270
104 297
104 306
104 324
104 353
104 359
104 368
104 452
104 458
104 477
104 635
104 647
104 682
104 705
104 713
104 772
104 891
104 936
104 1057
104 1124
104 1221
104 1296
104 1356
104 1702
104 1744
104 2073
104 2117
104 2188
104 2339
104 2673
104 3167
104 3179
104 3189
104 3225
104 3387
104 3437
104 3713
104 3791
104 3938
104 4006
104 4100
104 4255
104 4459
104 4470
104 4472
104 4556
104 4688
104 4714
104 4867
104 4921
104 4975
104 5111
104 5528
104 5843
104 6300
104 6322
104 6394
104 6527
104 6543
104 6943
104 7155
104 7417
104 7746
104 8516
104 8586
104 8914
104 9066
104 9162
104 9163
104 9229
104 9302
104 9454
104 9523
104 9575
104 9878
104 9892
104 9945
105 121
105 206
105 234
105 256
105 330
105 334
105 372
105 387
105 391
105 539
105 571
105 608
105 644
105 676
105 685
105 692
105 817
105 824
105 825
105 837
105 959
105 1196
105 1201
105 1378
105 1416
105 1506
105 1551
105 1583
105 1795
105 1929
105 2043
105 2093
105 2188
105 2313
105 2385
105 2462
105 2492
105 2633
105 2675
105 2800
105 3172
105 3201
105 3237
105 3339
105 3479
105 3677
105 3692
105 3737
105 3774
105 4370
105 4381
105 4421
105 4737
105 4789
105 4842
105 5195
105 5277
105 5401
105 5490
105 5561
105 5718
105 5763
105 5798
105 6039
105 6060
105 6244
105 6580
105 6615
105 6694
105 6825
105 7018
105 7077
105 7126
105 7174
105 7277
105 7284
105 7361
105 7631
105 7741
105 7886
105 7995
105 8061
105 8251
105 8529
105 8844
105 8848
105 8949
105 9050
105 9398
105 9399
105 9522
105 9604
105 9819
105 9824
105 9910
106 122
106 177
106 189
106 243
106 351
106 370
106 392
106 481
106 494
106 515
106 526
106 572
106 635
106 665
106 667
106 668
106 758
106 843
106 959
106 1065
106 1079
106 1240
106 1355
106 1452
106 1511
106 1530
106 1657
106 1674
106 1700
106 2024
106 2389
106 2616
106 2666
106 2731
106 2779
106 2981
106 3008
106 3105
106 3197
106 3598
106 3643
106 3722
106 3723
106 3817
106 3960
106 4275
106 4276
106 4376
106 4464
106 4807
106 4881
106 5037
106 5182
106 5260
106 5336
106 5427
106 5521
106 6276
106 6298
106 6445
106 6893
106 7288
106 7323
106 7929
106 8006
106 8018
106 8074
106 8082
106 8194
106 8201
106 8254
106 9066
106 9087
106 9701
106 9758
106 9777
106 9858
107 110
107 125
107 131
107 255
107 311
107 322
107 351
107 367
107 483
107 529
107 613
107 661
107 683
107 749
107 788
107 1006
107 1180
107 1363
107 1366
107 1578
107 1694
107 1782
107 1798
107 1915
107 1936
107 1959
107 1976
107 2058
107 2221
107 2287
107 2413
107 2603
107 2611
107 2914
107 3155
107 3156
107 3196
107 3318
107 3367
107 3745
107 3846
107 4157
107 4757
107 4897
107 4963
107 5205
107 5586
107 5682
107 5787
107 6068
107 6083
107 6364
107 6468
107 6519
107 6798
107 6805
107 6843
107 6876
107 7138
107 7232
107 7341
107 7671
107 7931
107 8005
107 9206
107 9714
107 9819
107 9875
108 117
108 120
108 139
108 221
108 254
108 260
108 274
108 299
108 344
108 390
108 423
108 471
108 521
108 540
108 548
108 553
108 584
108 609
108 721
108 764
108 766
108 965
108 1150
108 1273
108 1637
108 1759
108 1903
108 2218
108 2227
108 2358
108 2428
108 2718
108 2840
108 2855
108 2955
108 2969
108 3243
108 3493
108 3514
108 3892
108 4480
108 4607
108 4953
108 5715
108 5732
108 5790
108 5800
108 6012
108 6348
108 6847
108 7351
108 7428
108 7653
108 7899
108 7949
108 8203
108 8346
108 8496
108 8784
108 8813
108 8852
108 9012
108 9033
108 9125
108 9442
109 145
109 167
109 210
109 236
109 247
109 261
109 275
109 280
109 305
109 578
109 662
109 710
109 740
109 773
109 781
109 820
109 1001
109 1150
109 1195
109 1232
109 1315
109 1382
109 1411
109 1431
109 1524
109 1602
109 1713
109 1796
109 1856
109 1942
109 1991
109 1997
109 2131
109 2143
109 2189
109 2534
109 2662
109 2954
109 3025
109 3027
109 3059
109 3127
109 3200
109 3251
109 3532
109 3620
109 3747
109 4002
109 4072
109 4080
109 4222
109 4258
109 4267
109 4521
109 4528
109 4676
109 4889
109 5018
109 5178
109 5367
109 5370
109 5560
109 5725
109 5847
109 5952
109 6105
109 6182
109 6310
109 6357
109 6391
109 6546
109 6669
109 6927
109 6948
109 7047
109 7205
109 7668
109 7717
109 7720
109 7892
109 7920
109 8187
109 8281
109 8483
109 8510
109 8681
109 8939
109 9511
109 9625
110 124
110 202
110 231
110 268
110 283
110 384
110 393
110 416
110 451
110 465
110 472
110 497
110 505
110 627
110 664
110 805
110 862
110 875
110 882
110 889
110 935
110 961
110 1085
110 1091
110 1119
110 1140
110 1312
110 1326
110 1491
110 1709
110 1837
110 1882
110 1983
110 2060
110 2204
110 2371
110 2442
110 2502
110 2559
110 2573
110 2584
110 2832
110 2928
110 3072
110 3490
110 3623
110 3698
110 3835
110 3862
110 3868
110 3960
110 4114
110 4610
110 4922
110 4943
110 5117
110 5252
110 5282
110 5332
110 5576
110 5758
110 5759
110 5872
110 5943
110 6261
110 6496
110 6550
110 6585
110 6919
110 7044
110 7136
110 7378
110 7671
110 7822
110 7861
110 8140
110 8168
110 8196
110 8444
110 8596
110 9161
110 9434
110 9528
110 9658
111 114
111 118
111 147
111 191
111 218
111 219
111 242
111 298
111 312
111 318
111 340
111 342
111 356
111 360
111 366
111 368
111 376
111 390
111 393
111 458
111 467
111 471
111 487
111 539
111 554
111 558
111 596
111 602
111 642
111 657
111 695
111 730
111 746
111 795
111 812
111 875
111 896
111 904
111 944
111 976
111 977
111 982
111 1016
111 1037
111 1038
111 1217
111 1248
111 1309
111 1341
111 1366
111 1395
111 1405
111 1479
111 1564
111 1586
111 1683
111 1722
111 1810
111 1812
111 1831
111 1877
111 1928
111 1982
111 2020
111 2037
111 2040
111 2092
111 2149
111 2155
111 2220
111 2319
111 2331
111 2387
111 2392
111 2413
111 2428
111 2520
111 2555
111 2564
111 2571
111 2739
111 2852
111 2891
111 2913
111 3023
111 3099
111 3108
111 3122
111 3231
111 3387
111 3917
111 3960
111 4062
111 4169
111 4252
111 4411
111 4427
111 4524
111 4789
111 4918
111 5084
111 5178
111 5231
111 5265
111 5267
111 5285
111 5379
111 5575
111 5743
111 5751
111 5966
111 5990
111 6000
111 6440
111 6718
111 6777
111 6849
111 7401
111 7404
111 7473
111 7558
111 7638
111 7754
111 7867
111 7936
111 7954
111 8365
111 8457
111 8540
111 8728
111 8902
111 9139
111 9325
111 9358
111 9626
111 9775
111 9799
111 9810
111 9822
111 9824
111 9898
112 120
112 158
112 172
112 176
112 210
112 214
112 333
112 473
112 615
112 652
112 711
112 877
112 938
112 979
112 1175
112 1236
112 1328
112 1628
112 1709
112 1747
112 1898
112 1905
112 2273
112 2276
112 2372
112 2496
112 2570
112 2717
112 2751
112 2796
112 2891
112 2936
112 3028
112 3150
112 3164
112 3365
112 3714
112 3806
112 4000
112 4266
112 4310
112 4350
112 4677
112 4926
112 5000
112 5224
112 5327
112 5517
112 5917
112 6310
112 6397
112 6693
112 6835
112 7012
112 7197
112 7384
112 7540
112 7583
112 7644
112 7657
112 8925
112 8978
112 8999
112 9072
112 9215
112 9232
112 9474
112 9628
112 9771
112 9995
113 134
113 138
113 156
113 157
113 167
113 183
113 203
113 219
113 265
113 337
113 359
113 389
113 430
113 564
113 593
113 653
113 724
113 770
113 818
113 952
113 993
113 1035
113 1070
113 1265
113 1313
113 1343
113 1436
113 1665
113 1781
113 1876
113 1921
113 1922
113 2108
113 2149
113 2385
113 2590
113 2644
113 2763
113 2801
113 2955
113 3017
113 3026
113 3116
113 3155
113 3224
113 3316
113 3395
113 3483
113 3489
113 3499
113 3675
113 3751
113 3923
113 4048
113 4058
113 4092
113 4604
113 4897
113 4906
113 4974
113 5127
113 5411
113 5598
113 5796
113 5898
113 6031
113 6051
113 6176
113 6298
113 6744
113 6793
113 7506
113 7589
113 7607
113 7719
113 7858
113 8071
113 8385
113 8439
113 8591
113 8781
113 8839
113 9306
113 9436
113 9442
113 9452
113 9540
113 9618
113 9807
113 9869
113 9947
114 145
114 152
114 193
114 442
114 516
114 876
114 917
114 1023
114 1095
114 1098
114 1135
114 1289
114 1342
114 1378
114 1387
114 1528
114 1893
114 2112
114 2158
114 2272
114 2287
114 3037
114 3216
114 3231
114 3260
114 3338
114 3868
114 3932
114 4541
114 4626
114 4868
114 5496
114 5706
114 6770
114 6814
114 6889
114 7335
114 7525
114 8102
114 8316
114 9199
114 9419
114 9821
115 174
115 181
115 188
115 209
115 219
115 224
115 300
115 432
115 449
115 539
115 581
115 585
115 624
115 647
115 663
115 872
115 910
115 945
115 1047
115 1079
115 1175
115 1190
115 1210
115 1274
115 1301
115 1334
115 1442
115 1627
115 1686
115 1738
115 1919
115 2060
115 2445
115 2803
115 2929
115 3079
115 3135
115 3726
115 3764
115 3857
115 3938
115 4320
115 4505
115 4805
115 4902
115 4988
115 4995
115 5008
115 5167
115 5184
115 5283
115 5362
115 5482
115 5577
115 5583
115 5754
115 5799
115 6099
115 6187
115 6594
115 6922
115 7080
115 7086
115 7164
115 7265
115 7287
115 7334
115 7347
115 7598
115 7638
115 7653
115 7679
115 7749
115 7888
115 7970
115 8271
115 8304
115 8529
115 8721
115 9203
115 9623
115 9641
115 9719
115 9808
115 9992
116 131
116 145
116 240
116 242
116 260
116 267
116 370
116 377
116 404
116 411
116 463
116 473
116 483
116 502
116 522
116 614
116 628
116 641
116 657
116 688
116 761
116 781
116 975
116 982
116 1168
116 1182
116 1224
116 1241
116 1267
116 1288
116 1298
116 1361
116 1465
116 1481
116 1616
116 1652
116 1757
116 1828
116 1849
116 1991
116 1998
116 2030
116 2060
116 2128
116 2169
116 2223
116 2278
116 2373
116 2483
116 2588
116 2615
116 2738
116 2749
116 2813
116 2899
116 3176
116 3323
116 3420
116 3441
116 3507
116 3685
116 3780
116 3790
116 4140
116 4402
116 4421
116 4572
116 4661
116 4721
116 4780
116 4784
116 4921
116 5234
116 5239
116 5511
116 5562
116 5929
116 6067
116 6175
116 6283
116 6711
116 6785
116 7015
116 7189
116 7654
116 7706
116 7797
116 8197
116 8396
116 8479
116 8605
116 8706
116 8772
116 9128
116 9340
116 9371
116 9461
116 9625
117 130
117 146
117 165
117 168
117 183
117 208
117 210
117 225
117 276
117 313
117 320
117 345
117 353
117 356
117 360
117 514
117 550
117 557
117 564
117 632
117 636
117 640
117 654
117 691
117 742
117 881
117 950
117 955
117 983
117 1106
117 1208
117 1233
117 1264
117 1284
117 1373
117 1640
117 1712
117 1807
117 1862
117 1903
117 2252
117 2480
117 2545
117 2576
117 2642
117 2735
117 2826
117 2829
117 2942
117 3135
117 3185
117 3427
117 3470
117 3779
117 4015
117 4277
117 4419
117 4593
117 4672
117 4692
117 4695
117 4721
117 4761
117 4935
117 5020
117 5152
117 5232
117 5334
117 5426
117 5480
117 5574
117 5626
117 5788
117 5805
117 5837
117 5908
117 6085
117 6126
117 6251
117 6333
117 6551
117 6634
117 6644
117 6841
117 6964
117 7100
117 7102
117 7128
117 7419
117 7609
117 7628
117 7765
117 8137
117 8200
117 8262
117 8426
117 8950
117 9088
117 9154
117 9390
117 9460
117 9819
117 9978
118 120
118 134
118 142
118 152
118 196
118 228
118 356
118 374
118 407
118 411
118 414
118 416
118 461
118 476
118 483
118 517
118 566
118 576
118 586
118 681
118 724
118 778
118 793
118 830
118 836
118 845
118 884
118 985
118 1058
118 1092
118 1122
118 1140
118 1257
118 1307
118 1417
118 1428
118 1585
118 1748
118 1756
118 1896
118 2036
118 2206
118 2207
118 2267
118 2279
118 2480
118 2555
118 2599
118 2609
118 2639
118 2661
118 2709
118 2774
118 2801
118 2888
118 3138
118 3185
118 3290
118 3313
118 3526
118 3556
118 3634
118 3827
118 3866
118 3986
118 4129
118 4265
118 4452
118 4485
118 4489
118 4688
118 4761
118 4870
118 5052
118 5225
118 5306
118 5368
118 5514
118 5897
118 6025
118 6488
118 6783
118 6789
118 6855
118 6872
118 6892
118 7108
118 7534
118 7620
118 7629
118 7779
118 8185
118 8221
118 8280
118 8288
118 8361
118 8477
118 8512
118 9081
118 9151
118 9361
118 9410
118 9599
118 9666
119 122
119 133
119 181
119 218
119 262
119 284
119 288
119 318
119 322
119 323
119 329
119 406
119 450
119 507
119 524
119 638
119 653
119 670
119 734
119 750
119 825
119 834
119 917
119 1010
119 1301
119 1343
119 1385
119 1464
119 1507
119 1573
119 1639
119 1779
119 1822
119 1871
119 1994
119 2051
119 2318
119 2388
119 2410
119 2732
119 2819
119 2883
119 2896
119 3017
119 3326
119 3334
119 3391
119 3490
119 3707
119 3721
119 3765
119 3875
119 4140
119 4565
119 4699
119 4722
119 5007
119 5755
119 5921
119 5923
119 6014
119 6156
119 6216
119 6486
119 6739
119 6749
119 6960
119 7038
119 7071
119 7102
119 7301
119 7407
119 7549
119 7634
119 7979
119 8027
119 8158
119 8232
119 8308
119 8389
119 8411
119 8422
119 8474
119 9162
119 9500
119 9623
119 9627
119 9796
120 124
120 129
120 168
120 370
120 388
120 513
120 552
120 566
120 604
120 618
120 633
120 648
120 951
120 980
120 981
120 986
120 1041
120 1149
120 1190
120 1235
120 1332
120 1349
120 1897
120 2081
120 2187
120 2376
120 2387
120 2886
120 2964
120 2984
120 3317
120 3715
120 3865
120 3892
120 4468
120 4826
120 5789
120 5871
120 6519
120 6645
120 6981
120 7101
120 7109
120 7217
120 7270
120 7296
120 7474
120 7580
120 7740
120 7870
120 8003
120 8105
120 8118
120 8586
120 9242
120 9697
120 9708
120 9828
121 126
121 186
121 193
121 239
121 282
121 463
121 496
121 569
121 573
121 637
121 643
121 717
121 767
121 783
121 784
121 847
121 856
121 1030
121 1142
121 1199
121 1202
121 1216
121 1329
121 1330
121 1447
121 1585
121 1665
121 1666
121 1773
121 1795
121 1846
121 1970
121 2017
121 2026
121 2145
121 2257
121 2360
121 2366
121 2424
121 2462
121 2466
121 2486
121 2598
121 2717
121 2908
121 2995
121 3136
121 3312
121 3384
121 3446
121 3486
121 3556
121 3693
121 3831
121 3886
121 3933
121 4029
121 4164
121 4346
121 4466
121 4496
121 4512
121 4742
121 4744
121 4775
121 5094
121 5143
121 5381
121 5389
121 5503
121 5585
121 5635
121 5712
121 5762
121 5837
121 5977
121 6433
121 6522
121 6566
121 6683
121 6888
121 7274
121 7378
121 8113
121 8134
121 8469
121 8892
121 9118
121 9213
121 9356
121 9719
121 9908
122 134
122 203
122 206
122 210
122 213
122 254
122 257
122 272
122 309
122 317
122 322
122 325
122 337
122 346
122 383
122 444
122 488
122 490
122 630
122 639
122 657
122 658
122 765
122 835
122 867
122 930
122 947
122 1021
122 1112
122 1221
122 1230
122 1269
122 1270
122 1366
122 1464
122 1503
122 1599
122 1656
122 1665
122 1756
122 1773
122 1815
122 2193
122 2394
122 2815
122 2836
122 2996
122 3292
122 3511
122 3936
122 4008
122 4173
122 4266
122 4534
122 4622
122 4845
122 4997
122 4998
122 5016
122 5087
122 5597
122 5658
122 6054
122 6119
122 6292
122 6379
122 6417
122 6535
122 6562
122 6799
122 6835
122 6968
122 7098
122 7433
122 7475
122 7532
122 7929
122 7958
122 8343
122 8663
122 9184
122 9919
123 128
123 137
123 138
123 139
123 155
123 158
123 173
123 181
123 229
123 232
123 262
123 278
123 324
123 327
123 349
123 410
123 420
123 433
123 481
123 513
123 632
123 677
123 680
123 698
123 703
123 710
123 795
123 873
123 925
123 974
123 1003
123 1019
123 1078
123 1089
123 1163
123 1184
123 1256
123 1263
123 1288
123 1335
123 1452
123 1473
123 1615
123 1694
123 1837
123 1993
123 2113
123 2311
123 2326
123 2340
123 2355
123 2415
123 2447
123 2486
123 2514
123 2524
123 2678
123 2861
123 3008
123 3376
123 3474
123 3491
123 3535
123 3553
123 3692
123 3703
123 3772
123 3813
123 3882
123 4209
123 4256
123 4637
123 4693
123 4727
123 4875
123 5232
123 5348
123 5383
123 5623
123 5634
123 5723
123 5726
123 5740
123 5775
123 5809
123 5912
123 6062
123 6064
123 6105
123 6131
123 6132
123 6144
123 6596
123 6653
123 6679
123 6773
123 6833
123 6835
123 6877
123 7001
123 7057
123 7192
123 7296
123 7338
123 8429
123 8470
123 8505
123 8745
123 8980
123 8986
123 9210
123 9270
123 9563
123 9677
123 9832
123 9941
124 140
124 223
124 226
124 247
124 278
124 293
124 368
124 384
124 385
124 439
124 450
124 464
124 483
124 495
124 504
124 508
124 587
124 705
124 714
124 755
124 759
124 786
124 799
124 821
124 822
124 846
124 880
124 886
124 914
124 953
124 966
124 1019
124 1048
124 1105
124 1136
124 1534
124 1538
124 1570
124 1661
124 1751
124 1796
124 1818
124 1897
124 2037
124 2090
124 2096
124 2212
124 2313
124 2349
124 2448
124 2548
124 2555
124 2562
124 2567
124 2674
124 2799
124 2821
124 2879
124 2882
124 2956
124 3003
124 3049
124 3180
124 3249
124 3318
124 3409
124 3521
124 3666
124 3793
124 3801
124 3851
124 3983
124 4049
124 4081
124 4090
124 4205
124 4242
124 4371
124 4477
124 4605
124 4651
124 4769
124 4857
124 5032
124 5052
124 5282
124 5607
124 5684
124 5712
124 6088
124 6110
124 6232
124 6276
124 6420
124 6421
124 6575
124 6724
124 6847
124 6905
124 7103
124 7186
124 7240
124 7283
124 7299
124 7342
124 7428
124 7429
124 7433
124 7674
124 7950
124 8023
124 8194
124 8195
124 8235
124 8279
124 8434
124 8443
124 8478
124 8550
124 8583
124 8776
124 8901
124 8930
124 9420
124 9508
124 9560
124 9584
124 9595
124 9605
124 9718
125 128
125 141
125 154
125 265
125 362
125 497
125 622
125 686
125 760
125 766
125 776
125 905
125 960
125 1107
125 1350
125 1494
125 1504
125 1540
125 1738
125 1786
125 3089
125 3108
125 3559
125 3748
125 3816
125 4036
125 4149
125 4462
125 4873
125 5048
125 5079
125 5335
125 6079
125 6124
125 6251
125 6325
125 6818
125 7750
125 8173
125 8367
125 8586
125 8748
125 8782
125 8796
125 9160
125 9695
125 9847
126 172
126 182
126 237
126 239
126 289
126 342
126 498
126 519
126 550
126 647
126 701
126 771
126 860
126 1008
126 1031
126 1056
126 1200
126 1203
126 1384
126 1535
126 1721
126 2069
126 2264
126 2335
126 2476
126 2639
126 2686
126 2936
126 3378
126 3405
126 3462
126 3830
126 4035
126 4062
126 4276
126 4450
126 4900
126 4967
126 5037
126 5144
126 5165
126 5171
126 5594
126 5674
126 6241
126 6262
126 7275
126 7316
126 8271
126 8374
126 8544
126 8852
126 8998
126 9079
126 9193
126 9926
126 9954
127 139
127 149
127 154
127 181
127 199
127 208
127 233
127 234
127 237
127 250
127 294
127 315
127 427
127 487
127 547
127 634
127 693
127 711
127 745
127 778
127 819
127 835
127 863
127 1029
127 1038
127 1042
127 1054
127 1087
127 1153
127 1310
127 1317
127 1340
127 1403
127 1631
127 1637
127 1651
127 1748
127 1775
127 1786
127 1826
127 1838
127 1890
127 1899
127 1955
127 1993
127 2022
127 2381
127 2454
127 2496
127 2583
127 2629
127 2671
127 2799
127 2847
127 2923
127 2924
127 2952
127 3053
127 3163
127 3417
127 3491
127 3580
127 3809
127 4058
127 4083
127 4225
127 4456
127 4825
127 4972
127 5015
127 5019
127 5084
127 5348
127 5442
127 5578
127 5587
127 5673
127 5845
127 5867
127 5939
127 6124
127 6210
127 6311
127 6331
127 6385
127 6978
127 7089
127 7654
127 7815
127 8156
127 8224
127 8587
127 8901
127 8927
127 8980
127 8981
127 9325
127 9414
127 9823
127 9831
128 154
128 157
128 214
128 216
128 219
128 233
128 238
128 248
128 253
128 258
128 323
128 387
128 394
128 458
128 476
128 558
128 634
128 638
128 728
128 732
128 782
128 793
128 862
128 1003
128 1114
128 1160
128 1178
128 1307
128 1630
128 1848
128 1856
128 1906
128 1966
128 2085
128 2178
128 2318
128 2375
128 2630
128 2835
128 3020
128 3485
128 3564
128 3710
128 3982
128 4017
128 4127
128 4424
128 4867
128 5093
128 5337
128 5989
128 6004
128 6114
128 6385
128 6437
128 6739
128 6778
128 6876
128 7165
128 7204
128 7540
128 7549
128 7813
128 8064
128 8498
128 8627
128 8719
128 8943
128 9016
128 9731
128 9771
128 9785
129 133
129 287
129 317
129 323
129 419
129 479
129 509
129 577
129 893
129 1029
129 1208
129 1390
129 1400
129 1497
129 1564
129 1604
129 1641
129 1642
129 1951
129 1989
129 2001
129 2059
129 2155
129 2341
129 2416
129 2423
129 2433
129 2658
129 2704
129 2823
129 3078
129 3248
129 3561
129 3579
129 3695
129 3960
129 3984
129 4197
129 4478
129 4999
129 5224
129 5235
129 5274
129 5350
129 5485
129 6273
129 6832
129 7137
129 7600
129 7727
129 7758
129 7909
129 8254
129 8300
129 8431
129 8801
129 8880
129 8968
129 9271
129 9394
129 9627
129 9961
130 151
130 240
130 244
130 258
130 267
130 283
130 315
130 356
130 361
130 385
130 402
130 411
130 418
130 423
130 427
130 446
130 473
130 514
130 620
130 646
130 714
130 890
130 918
130 994
130 1004
130 1183
130 1243
130 1283
130 1308
130 1402
130 1477
130 1494
130 1525
130 1571
130 1576
130 1627
130 1638
130 1735
130 1895
130 1917
130 1946
130 2061
130 2212
130 2266
130 2509
130 2629
130 2652
130 2666
130 2733
130 2748
130 2766
130 3213
130 3252
130 3313
130 3396
130 3687
130 3933
130 3976
130 4000
130 4094
130 4217
130 4229
130 4509
130 4612
130 4789
130 4942
130 5177
130 5322
130 5324
130 5492
130 5515
130 5533
130 5782
130 5899
130 6019
130 6141
130 6607
130 6737
130 7155
130 7223
130 7314
130 7358
130 7426
130 7485
130 7635
130 8035
130 8075
130 8233
130 8489
130 8677
130 9359
131 157
131 164
131 171
131 183
131 216
131 220
131 232
131 311
131 319
131 320
131 416
131 451
131 464
131 483
131 506
131 556
131 561
131 581
131 674
131 686
131 709
131 747
131 815
131 914
131 939
131 952
131 974
131 979
131 1006
131 1097
131 1105
131 1144
131 1248
131 1417
131 1506
131 1566
131 1624
131 1738
131 1778
131 1798
131 1809
131 1872
131 2032
131 2116
131 2184
131 2231
131 2259
131 2260
131 2268
131 2272
131 2284
131 2297
131 2370
131 2392
131 2504
131 2509
131 2573
131 2581
131 2593
131 2666
131 2818
131 2924
131 2926
131 3152
131 3354
131 3366
131 3416
131 3596
131 3633
131 3656
131 3670
131 3720
131 3892
131 3966
131 4103
131 4312
131 4359
131 4585
131 4705
131 4749
131 4952
131 5070
131 5143
131 5387
131 5403
131 5414
131 5576
131 5632
131 5746
131 5756
131 5757
131 5919
131 6059
131 6143
131 6181
131 6223
131 6471
131 6482
131 6647
131 6696
131 6747
131 6768
131 7148
131 7217
131 7404
131 7716
131 7847
131 7876
131 7987
131 8075
131 8112
131 8322
131 8363
131 8456
131 8561
131 8827
131 8880
131 8893
131 9051
131 9141
131 9568
131 9577
131 9626
131 9715
131 9756
131 9789
131 9805
131 9986
132 138
132 146
132 182
132 219
132 226
132 227
132 259
132 275
132 279
132 289
132 291
132 294
132 300
132 304
132 337
132 379
132 390
132 401
132 426
132 439
132 440
132 468
132 496
132 501
132 521
132 534
132 552
132 588
132 594
132 611
132 628
132 652
132 722
132 724
132 735
132 813
132 851
132 934
132 987
132 988
132 1008
132 1049
132 1076
132 1139
132 1146
132 1151
132 1179
132 1201
132 1221
132 1233
132 1251
132 1258
132 1265
132 1268
132 1342
132 1345
132 1356
132 1369
132 1456
132 1463
132 1470
132 1501
132 1595
132 1831
132 1854
132 1879
132 2313
132 2409
132 2430
132 2496
132 2528
132 2569
132 2620
132 2699
132 2760
132 2762
132 2781
132 2813
132 2939
132 3013
132 3022
132 3060
132 3082
132 3087
132 3208
132 3272
132 3284
132 3320
132 3338
132 3357
132 3418
132 3431
132 3551
132 3582
132 3615
132 3645
132 3722
132 3863
132 3965
132 4120
132 4135
132 4234
132 4239
132 4273
132 4290
132 4322
132 4393
132 4435
132 4597
132 4628
132 4652
132 4674
132 4925
132 5088
132 5218
132 5357
132 5700
132 5778
132 5781
132 5929
132 6026
132 6042
132 6053
132 6082
132 6103
132 6209
132 6239
132 6373
132 6595
132 6789
132 6816
132 6881
132 6924
132 7154
132 7410
132 7506
132 7536
132 7625
132 7723
132 7900
132 7976
132 7991
132 8175
132 8291
132 8320
132 8329
132 8390
132 8532
132 8685
132 8691
132 8699
132 8737
132 8901
132 8912
132 9190
132 9458
132 9463
132 9542
132 9586
132 9750
133 134
133 158
133 173
133 198
133 216
133 243
133 257
133 263
133 332
133 343
133 399
133 421
133 444
133 603
133 633
133 726
133 748
133 759
133 1139
133 1584
133 1639
133 1642
133 1725
133 1827
133 1835
133 2008
133 2050
133 2069
133 2142
133 2374
133 2489
133 2548
133 2697
133 2983
133 3091
133 3137
133 3191
133 3204
133 3346
133 3367
133 3470
133 3657
133 3770
133 3849
133 3861
133 3951
133 4207
133 4251
133 4310
133 4748
133 5129
133 5150
133 5190
133 5574
133 5743
133 5948
133 6222
133 6229
133 6234
133 6481
133 6690
133 7016
133 8357
133 8619
133 8620
133 8765
133 9059
133 9249
133 9327
133 9393
133 9805
134 140
134 160
134 179
134 184
134 185
134 236
134 290
134 305
134 319
134 331
134 360
134 375
134 421
134 502
134 574
134 602
134 605
134 699
134 753
134 808
134 933
134 996
134 1137
134 1146
134 1154
134 1171
134 1229
134 1268
134 1405
134 1425
134 1598
134 1605
134 1640
134 1645
134 1722
134 1813
134 1869
134 1962
134 2089
134 2197
134 2394
134 2683
134 2688
134 2929
134 3017
134 3092
134 3102
134 3425
134 3439
134 3509
134 4003
134 4520
134 4542
134 4591
134 4626
134 4685
134 4802
134 4820
134 4831
134 4892
134 4910
134 4958
134 5093
134 5374
134 5532
134 5593
134 5745
134 5991
134 6613
134 6762
134 6813
134 7003
134 7344
134 7381
134 7406
134 7515
134 7761
134 7784
134 8092
134 8518
134 8700
134 8742
134 8820
134 9349
134 9421
134 9460
134 9568
134 9732
135 140
135 157
135 182
135 195
135 207
135 214
135 243
135 251
135 326
135 367
135 374
135 402
135 431
135 484
135 492
135 536
135 602
135 685
135 812
135 817
135 838
135 869
135 878
135 902
135 907
135 944
135 1109
135 1112
135 1118
135 1144
135 1146
135 1358
135 1360
135 1535
135 1560
135 1570
135 1685
135 1699
135 1716
135 1727
135 1782
135 1901
135 2052
135 2059
135 2397
135 2679
135 2873
135 3035
135 3057
135 3116
135 3168
135 3502
135 3503
135 3547
135 3618
135 3658
135 3780
135 3811
135 4076
135 4207
135 4230
135 4301
135 4334
135 4353
135 4746
135 4763
135 4787
135 4831
135 5385
135 5697
135 5839
135 6193
135 6445
135 6540
135 6959
135 7125
135 7880
135 7922
135 8007
135 8039
135 8081
135 8144
135 8194
135 8294
135 8773
135 8876
135 8922
135 9082
135 9150
135 9399
135 9591
135 9668
135 9811
135 9958
136 144
136 150
136 168
136 349
136 352
136 395
136 422
136 484
136 527
136 561
136 583
136 589
136 605
136 639
136 673
136 737
136 738
136 756
136 790
136 805
136 982
136 1005
136 1164
136 1242
136 1282
136 1320
136 1323
136 1333
136 1365
136 1374
136 1377
136 1383
136 1389
136 1396
136 1426
136 1456
136 1468
136 1524
136 1529
136 1588
136 1622
136 1657
136 1804
136 1814
136 1896
136 1905
136 1932
136 1943
136 2128
136 2157
136 2451
136 2472
136 2509
136 2526
136 2665
136 2744
136 2873
136 2900
136 2901
136 3035
136 3140
136 3194
136 3515
136 3671
136 3678
136 3713
136 3906
136 4052
136 4296
136 4383
136 4512
136 4614
136 4708
136 4710
136 4739
136 4740
136 4857
136 5051
136 5107
136 5422
136 5669
136 5713
136 5728
136 6067
136 6101
136 6105
136 6135
136 6273
136 6518
136 6745
136 6869
136 6878
136 7208
136 7295
136 7401
136 7910
136 8516
136 8884
136 9189
136 9350
136 9742
136 9830
136 9935
137 154
137 169
137 180
137 201
137 302
137 310
137 328
137 456
137 544
137 568
137 595
137 606
137 619
137 696
137 734
137 807
137 821
137 944
137 955
137 1012
137 1273
137 1395
137 1426
137 1630
137 1656
137 1686
137 1753
137 1890
137 1921
137 1967
137 2213
137 2260
137 2513
137 3231
137 3764
137 3793
137 3862
137 3964
137 4073
137 4644
137 4837
137 5020
137 5095
137 5215
137 5382
137 5445
137 5452
137 5537
137 5582
137 5881
137 5973
137 6526
137 6983
137 6995
137 6996
137 7133
137 7143
137 7476
137 7491
137 7604
137 8004
137 8111
137 8273
137 8806
137 9239
137 9384
137 9488
138 154
138 185
138 231
138 256
138 278
138 292
138 314
138 318
138 332
138 341
138 373
138 464
138 514
138 535
138 617
138 628
138 640
138 653
138 789
138 844
138 852
138 951
138 1065
138 1172
138 1188
138 1267
138 1300
138 1363
138 1389
138 1475
138 1522
138 1555
138 1565
138 1654
138 1665
138 1682
138 1814
138 1864
138 1877
138 1922
138 1939
138 1967
138 1985
138 2160
138 2188
138 2210
138 2222
138 2298
138 2323
138 2385
138 2466
138 2529
138 2556
138 2633
138 2668
138 2734
138 2789
138 2929
138 2940
138 3021
138 3156
138 3168
138 3178
138 3242
138 3312
138 3545
138 3813
138 4024
138 4069
138 4075
138 4137
138 4170
138 4255
138 4257
138 4294
138 4546
138 4622
138 4846
138 4851
138 4925
138 5112
138 5133
138 5234
138 5295
138 5327
138 5438
138 5538
138 5583
138 5621
138 5689
138 5720
138 5814
138 5907
138 5918
138 6085
138 6265
138 6432
138 6899
138 7086
138 7138
138 7199
138 7268
138 7360
138 7463
138 7593
138 7690
138 7742
138 8011
138 8039
138 8170
138 8245
138 8338
138 8560
138 8750
138 8932
138 9178
138 9348
138 9473
138 9574
138 9647
138 9843
138 9921
138 9926
139 142
139 152
139 232
139 284
139 345
139 400
139 405
139 445
139 446
139 471
139 555
139 580
139 601
139 698
139 709
139 730
139 731
139 766
139 883
139 910
139 975
139 1007
139 1354
139 1416
139 1500
139 1545
139 1594
139 1656
139 1841
139 1908
139 2122
139 2204
139 2401
139 2520
139 2639
139 2725
139 2729
139 2892
139 3014
139 3110
139 3196
139 3299
139 3365
139 3649
139 3662
139 3691
139 3786
139 3791
139 4053
139 4130
139 4452
139 4608
139 4860
139 5000
139 5171
139 5173
139 5604
139 5891
139 5956
139 6107
139 6408
139 6898
139 7141
139 7511
139 7686
139 7933
139 7967
139 8102
139 8108
139 8165
139 8277
139 8481
139 8682
139 9040
139 9119
139 9426
139 9506
139 9520
139 9761
139 9839
139 9880
139 9902
139 9957
140 180
140 195
140 204
140 217
140 218
140 256
140 259
140 292
140 304
140 316
140 388
140 405
140 411
140 450
140 461
140 486
140 570
140 607
140 651
140 708
140 776
140 998
140 1006
140 1047
140 1066
140 1191
140 1207
140 1264
140 1291
140 1394
140 1399
140 1485
140 1549
140 1574
140 1683
140 1737
140 1832
140 1844
140 2146
140 2288
140 2375
140 2418
140 2760
140 2901
140 2917
140 2971
140 3114
140 3121
140 3416
140 3667
140 3857
140 3889
140 3917
140 3941
140 4009
140 4033
140 4226
140 4237
140 4252
140 4290
140 4341
140 4347
140 4461
140 4619
140 4765
140 5189
140 5260
140 5443
140 5767
140 6052
140 6414
140 6495
140 6553
140 6658
140 6698
140 6867
140 7066
140 7200
140 7512
140 7627
140 7725
140 7953
140 8298
140 8887
140 9365
140 9392
140 9886
140 9909
140 9955
141 154
141 165
141 186
141 208
141 237
141 264
141 286
141 299
141 325
141 360
141 388
141 409
141 479
141 484
141 485
141 498
141 516
141 531
141 543
141 578
141 661
141 689
141 692
141 701
141 769
141 802
141 816
141 833
141 911
141 922
141 1022
141 1060
141 1073
141 1123
141 1132
141 1135
141 1170
141 1178
141 1256
141 1490
141 1516
141 1567
141 1608
141 1680
141 1723
141 1743
141 1768
141 1857
141 1867
141 1934
141 1937
141 1942
141 2039
141 2066
141 2121
141 2382
141 2529
141 2574
141 2870
141 2874
141 2904
141 2943
141 3204
141 3398
141 3673
141 3865
141 4037
141 4055
141 4134
141 4171
141 4386
141 4425
141 4640
141 4643
141 4757
141 4766
141 4768
141 4776
141 4895
141 4991
141 5037
141 5174
141 5293
141 5416
141 5436
141 5539
141 5640
141 5701
141 5723
141 5922
141 6355
141 6525
141 6531
141 6863
141 6873
141 6875
141 6957
141 7054
141 7125
141 7236
141 7240
141 7251
141 7278
141 7357
141 7432
141 7536
141 7540
141 7642
141 7737
141 7968
141 7970
141 8032
141 8073
141 8086
141 8148
141 8233
141 8447
141 8505
141 8553
141 9185
141 9257
141 9301
141 9377
141 9387
141 9433
141 9594
141 9977
142 161
142 168
142 223
142 242
142 287
142 323
142 397
142 530
142 559
142 598
142 652
142 743
142 794
142 903
142 970
142 1045
142 1049
142 1450
142 1747
142 1871
142 1892
142 1906
142 2024
142 2092
142 2104
142 2252
142 2316
142 2324
142 2454
142 2579
142 2883
142 3146
142 3215
142 3224
142 3241
142 3988
142 4502
142 4729
142 4759
142 4840
142 5334
142 5452
142 5497
142 5784
142 6301
142 6345
142 6657
142 6678
142 6975
142 7463
142 7855
142 8004
142 8027
142 8163
142 8291
142 8358
142 8948
142 9177
142 9615
143 281
143 308
143 350
143 371
143 434
143 510
143 554
143 571
143 684
143 912
143 1036
143 1214
143 1288
143 1397
143 1597
143 1614
143 1691
143 1762
143 1929
143 1984
143 2313
143 2320
143 2986
143 2995
143 3038
143 3304
143 3424
143 3589
143 3813
143 4054
143 4057
143 4400
143 4597
143 4642
143 4649
143 4833
143 4896
143 4952
143 5457
143 5744
143 5783
143 6349
143 6871
143 6967
143 7025
143 7196
143 7438
143 7587
143 7629
143 8379
143 8680
143 8804
143 8975
143 9053
143 9843
144 185
144 291
144 321
144 808
144 850
144 885
144 1314
144 1353
144 1601
144 1723
144 2167
144 2499
144 2804
144 3456
144 3717
144 3933
144 4087
144 4104
144 4159
144 4469
144 4960
144 4966
144 5284
144 5438
144 5567
144 5650
144 5869
144 5898
144 5925
144 6714
144 6996
144 7467
144 7973
144 8081
144 8531
144 8535
144 9160
144 9492
144 9545
144 9767
144 9844
145 163
145 164
145 168
145 189
145 227
145 277
145 280
145 299
145 305
145 338
145 381
145 396
145 405
145 415
145 461
145 508
145 514
145 581
145 676
145 704
145 777
145 807
145 843
145 879
145 910
145 940
145 950
145 1016
145 1022
145 1071
145 1136
145 1166
145 1240
145 1272
145 1410
145 1486
145 1497
145 1590
145 1611
145 1703
145 1958
145 1992
145 2032
145 2099
145 2102
145 2174
145 2300
145 2308
145 2317
145 2479
145 2495
145 2521
145 2586
145 2594
145 2774
145 2792
145 2809
145 2990
145 3058
145 3068
145 3094
145 3250
145 3362
145 3377
145 3584
145 3952
145 4105
145 4377
145 4390
145 4629
145 4649
145 4738
145 4862
145 4897
145 4975
145 5005
145 5068
145 5166
145 5373
145 5440
145 5670
145 5703
145 5829
145 5831
145 5844
145 5974
145 5975
145 6021
145 6290
145 6314
145 6354
145 6383
145 6681
145 6929
145 7089
145 7485
145 7568
145 7664
145 7905
145 8115
145 8174
145 8231
145 8260
145 8440
145 8639
145 8707
145 8752
145 8924
145 9011
145 9148
145 9802
145 9874
146 148
146 182
146 203
146 424
146 449
146 461
146 562
146 600
146 825
146 852
146 1035
146 1061
146 1165
146 1178
146 1206
146 1214
146 1248
146 1284
146 1385
146 1397
146 1454
146 1482
146 1533
146 1587
146 1604
146 1719
146 1790
146 1886
146 1963
146 1975
146 2045
146 2062
146 2087
146 2206
146 2231
146 2248
146 2296
146 2741
146 2807
146 2945
146 3111
146 3342
146 3477
146 3481
146 3508
146 3594
146 4371
146 4407
146 4482
146 4485
146 4837
146 5177
146 5274
146 5359
146 5600
146 5712
146 5752
146 5791
146 5808
146 6317
146 6516
146 6935
146 7944
146 8046
146 8105
146 8275
146 8468
146 8527
146 8685
146 8842
146 8865
146 9276
146 9437
146 9462
146 9530
146 9916
147 226
147 246
147 277
147 399
147 407
147 766
147 826
147 875
147 878
147 910
147 1005
147 1181
147 1279
147 1491
147 1539
147 1682
147 1739
147 1806
147 1817
147 1900
147 1917
147 2052
147 2117
147 2148
147 2168
147 2177
147 2434
147 2449
147 2503
147 2515
147 2591
147 2868
147 3235
147 3342
147 3392
147 3525
147 3618
147 3665
147 3700
147 3742
147 3954
147 3975
147 4192
147 4227
147 4279
147 4493
147 4545
147 4912
147 5004
147 5219
147 5358
147 5480
147 6072
147 6194
147 6804
147 7199
147 7386
147 7604
147 7755
147 7788
147 8363
147 8463
147 8663
147 8808
147 8913
147 9431
147 9444
147 9655
147 9657
147 9979
148 162
148 170
148 171
148 191
148 197
148 224
148 354
148 534
148 618
148 714
148 723
148 827
148 935
148 956
148 1005
148 1101
148 1118
148 1127
148 1171
148 1314
148 1461
148 1484
148 1560
148 1784
148 1812
148 1863
148 1938
148 1985
148 2140
148 2142
148 2223
148 2335
148 2600
148 2698
148 2748
148 3226
148 3360
148 3445
148 3512
148 3579
148 3585
148 3628
148 3823
148 3893
148 3955
148 3967
148 4126
148 4523
148 4593
148 4646
148 5253
148 5449
148 5481
148 5869
148 6702
148 7469
148 7615
148 7642
148 8100
148 8687
148 8920
148 9007
148 9576
148 9851
148 9987
149 203
149 281
149 396
149 459
149 519
149 531
149 564
149 581
149 623
149 652
149 681
149 695
149 700
149 762
149 822
149 932
149 954
149 979
149 1050
149 1081
149 1347
149 1355
149 1507
149 1591
149 1758
149 1761
149 2080
149 2095
149 2130
149 2159
149 2224
149 2250
149 2313
149 2459
149 2524
149 2557
149 2564
149 2731
149 2959
149 3075
149 3226
149 3667
149 3718
149 3908
149 4023
149 4145
149 4304
149 4723
149 4846
149 4947
149 4970
149 5170
149 5274
149 5296
149 5725
149 5732
149 5804
149 5829
149 6036
149 6166
149 6382
149 6814
149 6855
149 6984
149 7245
149 8036
149 8070
149 8130
149 8255
149 8267
149 8310
149 9166
149 9282
149 9295
150 302
150 304
150 330
150 336
150 388
150 496
150 554
150 565
150 769
150 814
150 918
150 941
150 1012
150 1209
150 1281
150 1304
150 1339
150 1408
150 1604
150 1712
150 1790
150 1830
150 1864
150 2038
150 2087
150 2403
150 2491
150 2605
150 2682
150 2755
150 2946
150 3202
150 3233
150 3462
150 3603
150 3813
150 3833
150 3904
150 3943
150 4234
150 4452
150 4453
150 4701
150 4844
150 5050
150 5074
150 5369
150 5410
150 5828
150 6137
150 6382
150 6531
150 6593
150 6968
150 7266
150 7705
150 8423
150 8787
150 8795
150 8843
150 9198
150 9520
150 9589
151 169
151 191
151 197
151 234
151 253
151 280
151 291
151 365
151 410
151 423
151 436
151 451
151 559
151 608
151 699
151 766
151 785
151 840
151 899
151 904
151 910
151 1088
151 1204
151 1236
151 1295
151 1417
151 1491
151 1495
151 1563
151 1670
151 1946
151 1990
151 2121
151 2310
151 2508
151 2728
151 2967
151 3253
151 3301
151 3384
151 3387
151 3466
151 3607
151 3662
151 3872
151 4118
151 4241
151 4292
151 4346
151 4375
151 4496
151 4855
151 5078
151 5135
151 5149
151 5400
151 5562
151 5684
151 5701
151 5732
151 6036
151 6086
151 6592
151 6693
151 7750
151 7821
151 7859
151 8187
151 8421
151 8431
151 8584
151 8712
151 8947
151 9043
151 9112
151 9189
151 9304
151 9514
151 9552
151 9757
151 9818
151 9952
151 9973
152 177
152 232
152 250
152 302
152 303
152 310
152 320
152 485
152 557
152 622
152 661
152 702
152 716
152 771
152 893
152 1075
152 1086
152 1145
152 1179
152 1202
152 1281
152 1546
152 1753
152 1861
152 2111
152 2251
152 2381
152 2419
152 2454
152 2616
152 3114
152 3302
152 3389
152 3435
152 3487
152 3530
152 3711
152 3836
152 3932
152 4266
152 4347
152 4423
152 4445
152 4446
152 4577
152 4623
152 4718
152 4823
152 4901
152 5412
152 5429
152 5625
152 5711
152 5966
152 6103
152 6174
152 6232
152 6249
152 6449
152 6666
152 6729
152 7203
152 7351
152 7459
152 7478
152 7530
152 7565
152 8618
152 8822
152 9110
152 9228
152 9241
152 9415
152 9619
152 9972
153 165
153 178
153 321
153 322
153 339
153 341
153 407
153 409
153 440
153 453
153 485
153 504
153 533
153 596
153 665
153 671
153 726
153 770
153 800
153 816
153 820
153 831
153 874
153 916
153 1043
153 1080
153 1100
153 1227
153 1265
153 1270
153 1437
153 1640
153 1658
153 1664
153 1769
153 1819
153 1885
153 1950
153 2185
153 2252
153 2262
153 2273
153 2299
153 2397
153 2502
153 2667
153 2837
153 2942
153 2947
153 3088
153 3308
153 3309
153 3347
153 3434
153 3585
153 3601
153 3602
153 3656
153 3858
153 3937
153 4086
153 4494
153 4611
153 4684
153 4876
153 4880
153 5297
153 5477
153 5724
153 6038
153 6059
153 6145
153 6213
153 6318
153 6453
153 6566
153 6678
153 7031
153 7043
153 7373
153 7478
153 7971
153 7978
153 8060
153 8182
153 8340
153 8620
153 8787
153 8853
153 9272
153 9727
154 160
154 221
154 286
154 305
154 383
154 445
154 450
154 552
154 558
154 693
154 753
154 757
154 764
154 815
154 832
154 889
154 922
154 975
154 1008
154 1052
154 1238
154 1271
154 1311
154 1375
154 1381
154 1563
154 1620
154 1707
154 1786
154 1800
154 1863
154 1953
154 1974
154 2128
154 2246
154 2386
154 2659
154 2753
154 2766
154 2787
154 2858
154 2909
154 2963
154 3009
154 3072
154 3381
154 3489
154 3509
154 3569
154 3614
154 3903
154 4012
154 4220
154 4359
154 4516
154 5322
154 5346
154 5660
154 5804
154 5876
154 5927
154 5934
154 6001
154 6142
154 6591
154 6740
154 6806
154 7397
154 7469
154 7610
154 7675
154 7869
154 7870
154 8305
154 8785
154 8831
154 8968
154 9263
154 9381
154 9400
154 9623
154 9891
155 174
155 204
155 282
155 333
155 376
155 476
155 492
155 744
155 754
155 783
155 883
155 888
155 889
155 1061
155 1066
155 1110
155 1262
155 1476
155 1903
155 2102
155 2165
155 2181
155 2300
155 2337
155 2727
155 3461
155 3551
155 3637
155 3757
155 3807
155 3870
155 4787
155 5257
155 5337
155 6788
155 7128
155 7203
155 7504
155 7718
155 8172
155 8312
155 8345
155 8945
155 9094
155 9112
155 9193
155 9219
155 9263
155 9393
156 187
156 194
156 207
156 328
156 373
156 393
156 435
156 509
156 599
156 648
156 653
156 687
156 689
156 769
156 896
156 959
156 967
156 1077
156 1094
156 1227
156 1231
156 1278
156 1519
156 1714
156 1715
156 1717
156 1740
156 1971
156 2118
156 2197
156 2220
156 2248
156 2314
156 2341
156 2449
156 2627
156 2702
156 2705
156 3078
156 3469
156 3548
156 3579
156 3768
156 3808
156 3839
156 4155
156 4183
156 4311
156 4322
156 4581
156 4623
156 5438
156 5761
156 5856
156 6011
156 6275
156 6484
156 6859
156 7198
156 7318
156 7548
156 7913
156 8270
156 8525
156 8544
156 8584
156 8924
156 9059
156 9299
156 9468
156 9588
157 169
157 284
157 289
157 332
157 345
157 357
157 417
157 435
157 445
157 600
157 626
157 863
157 876
157 877
157 882
157 908
157 1117
157 1132
157 1435
157 1438
157 1517
157 1563
157 1898
157 2199
157 2369
157 2685
157 2731
157 2741
157 2865
157 2893
157 2921
157 2949
157 3034
157 3274
157 3275
157 3480
157 3545
157 3546
157 3616
157 3677
157 3699
157 3951
157 3955
157 4035
157 4057
157 4062
157 4761
157 4873
157 5525
157 5543
157 5852
157 6259
157 6647
157 6899
157 7090
157 7162
157 7526
157 7684
157 7916
157 8199
157 8647
157 8743
157 8746
157 8812
157 8929
157 9166
157 9222
157 9303
157 9506
157 9515
157 9613
157 9975
158 179
158 192
158 194
158 223
158 248
158 287
158 296
158 468
158 499
158 519
158 578
158 685
158 722
158 846
158 1080
158 1139
158 1244
158 1318
158 1410
158 1411
158 1496
158 1504
158 1566
158 1655
158 1752
158 2019
158 2138
158 2144
158 2205
158 2244
158 2257
158 2501
158 2540
158 2736
158 3134
158 3433
158 3702
158 3783
158 3921
158 3959
158 4000
158 4519
158 4769
158 4879
158 5196
158 5700
158 6027
158 6155
158 7207
158 7249
158 7456
158 7923
158 8821
158 8861
158 9289
158 9671
158 9678
159 222
159 224
159 230
159 293
159 300
159 308
159 346
159 442
159 460
159 543
159 546
159 956
159 1035
159 1088
159 1129
159 1472
159 1482
159 1601
159 1610
159 1721
159 1875
159 1893
159 2011
159 2279
159 2299
159 2346
159 2382
159 2537
159 2667
159 2714
159 2811
159 2990
159 3003
159 3197
159 3494
159 3700
159 3771
159 3991
159 3993
159 4324
159 4598
159 4637
159 4742
159 4779
159 4954
159 5244
159 5261
159 5642
159 6160
159 6298
159 6631
159 6820
159 7268
159 7707
159 8603
159 8615
159 8772
159 9169
159 9189
159 9736
159 9843
160 185
160 200
160 227
160 244
160 337
160 357
160 364
160 367
160 485
160 498
160 550
160 561
160 603
160 614
160 635
160 639
160 723
160 741
160 782
160 802
160 868
160 878
160 937
160 984
160 1047
160 1188
160 1248
160 1348
160 1356
160 1367
160 1624
160 1639
160 1696
160 1780
160 1832
160 1879
160 1988
160 1992
160 2096
160 2190
160 2227
160 2302
160 2348
160 2650
160 2778
160 2813
160 3396
160 3522
160 3952
160 4055
160 4131
160 4224
160 4348
160 4553
160 4592
160 4749
160 4843
160 4882
160 5101
160 5619
160 5881
160 6234
160 6301
160 6305
160 6530
160 6711
160 6972
160 7119
160 7317
160 7446
160 7584
160 7781
160 7944
160 8040
160 8073
160 8208
160 8335
160 8534
160 8542
160 8646
160 8702
160 8972
160 9093
160 9180
160 9356
160 9510
160 9565
160 9622
160 9670
160 9702
160 9843
160 9958
161 218
161 261
161 266
161 290
161 418
161 590
161 740
161 795
161 808
161 817
161 830
161 905
161 1797
161 2003
161 2160
161 2241
161 2562
161 2590
161 2851
161 3001
161 3146
161 3377
161 3408
161 4546
161 5067
161 5276
161 5385
161 6887
161 7306
161 8881
161 8912
161 9023
161 9124
161 9274
161 9650
162 224
162 271
162 274
162 312
162 361
162 368
162 369
162 379
162 421
162 477
162 527
162 571
162 588
162 614
162 626
162 731
162 849
162 966
162 1017
162 1039
162 1194
162 1198
162 1210
162 1236
162 1261
162 1518
162 1612
162 1624
162 1629
162 1679
162 1706
162 1914
162 1925
162 1934
162 1938
162 2174
162 2265
162 2345
162 2424
162 2431
162 2456
162 2468
162 2519
162 2696
162 2732
162 2828
162 2962
162 3110
162 3347
162 3464
162 3492
162 3518
162 3796
162 3880
162 4024
162 4306
162 4610
162 4709
162 4857
162 4986
162 5127
162 5535
162 5864
162 6056
162 6118
162 6797
162 6956
162 7042
162 7088
162 7129
162 7617
162 7641
162 7764
162 7943
162 7995
162 8032
162 8048
162 8088
162 8327
162 8353
162 8470
162 8679
162 8717
162 8960
162 9438
162 9764
163 196
163 251
163 282
163 301
163 326
163 409
163 412
163 415
163 430
163 442
163 471
163 489
163 500
163 538
163 560
163 574
163 586
163 633
163 636
163 676
163 795
163 828
163 840
163 897
163 933
163 1005
163 1018
163 1094
163 1117
163 1123
163 1161
163 1172
163 1173
163 1291
163 1300
163 1319
163 1359
163 1362
163 1392
163 1413
163 1464
163 1491
163 1565
163 1671
163 1703
163 1780
163 1782
163 1805
163 1979
163 2068
163 2142
163 2159
163 2181
163 2185
163 2351
163 2377
163 2416
163 2550
163 2697
163 2767
163 2805
163 2835
163 2857
163 2860
163 2913
163 2921
163 3013
163 3035
163 3090
163 3193
163 3233
163 3574
163 3733
163 3740
163 3854
163 4098
163 4158
163 4278
163 4322
163 4413
163 4608
163 4759
163 4776
163 4778
163 4953
163 5018
163 5238
163 5259
163 5396
163 5482
163 5505
163 5705
163 5763
163 5836
163 5945
163 5976
163 6026
163 6051
163 6316
163 6351
163 6353
163 6457
163 6553
163 6811
163 6911
163 7084
163 7249
163 7314
163 7463
163 7741
163 7793
163 7835
163 7879
163 7967
163 8067
163 8089
163 8109
163 8390
163 8518
163 8559
163 8702
163 8724
163 8745
163 8762
163 8955
163 8969
163 9424
163 9493
163 9934
164 185
164 241
164 251
164 402
164 525
164 575
164 605
164 695
164 765
164 811
164 839
164 902
164 912
164 1096
164 1278
164 1539
164 1562
164 1612
164 1671
164 1675
164 1713
164 1801
164 1822
164 2153
164 2175
164 2335
164 2340
164 2501
164 2521
164 2675
164 2804
164 3065
164 3145
164 3395
164 3565
164 3723
164 3845
164 3886
164 4289
164 4678
164 4688
164 4969
164 5336
164 5405
164 6164
164 6343
164 6404
164 6411
164 6549
164 7256
164 8035
164 8228
164 8592
164 8740
164 8867
164 9042
164 9622
164 9921
165 228
165 233
165 265
165 268
165 283
165 284
165 288
165 291
165 440
165 543
165 591
165 616
165 645
165 678
165 680
165 1101
165 1211
165 1217
165 1263
165 1427
165 1430
165 1520
165 1970
165 1988
165 2010
165 2021
165 2198
165 2446
165 2507
165 2521
165 2699
165 2970
165 3155
165 3181
165 3193
165 3277
165 3309
165 3360
165 3373
165 3408
165 3413
165 3495
165 3689
165 3815
165 4141
165 4323
165 4329
165 4358
165 4448
165 4454
165 4745
165 4935
165 5038
165 5093
165 5235
165 5329
165 5472
165 5498
165 5511
165 6254
165 6267
165 6361
165 6633
165 6797
165 6940
165 7311
165 7431
165 7793
165 7957
165 8044
165 8128
165 8319
165 8464
165 8750
165 9076
165 9123
165 9271
165 9420
165 9994
166 167
166 168
166 251
166 336
166 337
166 344
166 359
166 383
166 385
166 387
166 408
166 527
166 559
166 586
166 593
166 606
166 645
166 646
166 700
166 981
166 1005
166 1026
166 1112
166 1121
166 1200
166 1352
166 1443
166 1520
166 1537
166 1685
166 1906
166 1957
166 2037
166 2067
166 2090
166 2125
166 2133
166 2687
166 2954
166 3020
166 3081
166 3163
166 3210
166 3312
166 3417
166 3928
166 4142
166 4240
166 4301
166 4320
166 4512
166 4609
166 4772
166 4810
166 5721
166 5734
166 6084
166 6179
166 6430
166 6480
166 6541
166 7088
166 7109
166 7147
166 7342
166 7751
166 7861
166 8042
166 8434
166 8622
166 8892
166 9048
166 9622
166 9708
166 9856
167 168
167 169
167 172
167 208
167 287
167 312
167 424
167 431
167 433
167 463
167 490
167 512
167 550
167 591
167 656
167 684
167 719
167 846
167 857
167 960
167 1028
167 1326
167 1339
167 1582
167 1656
167 1792
167 1838
167 1857
167 1878
167 2001
167 2141
167 2167
167 2199
167 2260
167 2267
167 2274
167 2279
167 2435
167 2663
167 2968
167 3008
167 3102
167 3234
167 3289
167 3314
167 3316
167 3343
167 3393
167 3430
167 4093
167 4474
167 4510
167 5006
167 5193
167 5202
167 5466
167 5480
167 5519
167 6210
167 6289
167 6432
167 6674
167 6721
167 6891
167 6924
167 7371
167 7550
167 7716
167 7819
167 8678
167 8864
167 8982
167 9135
167 9190
167 9260
167 9640
167 9648
168 179
168 187
168 201
168 218
168 257
168 287
168 435
168 482
168 501
168 510
168 544
168 603
168 604
168 632
168 667
168 671
168 715
168 738
168 771
168 775
168 859
168 977
168 1028
168 1063
168 1068
168 1095
168 1143
168 1248
168 1319
168 1406
168 1411
168 1559
168 1561
168 1589
168 1698
168 2021
168 2027
168 2054
168 2056
168 2106
168 2109
168 2192
168 2656
168 2698
168 2802
168 2843
168 2928
168 2938
168 3026
168 3056
168 3252
168 3283
168 3305
168 3333
168 3427
168 3628
168 3797
168 3861
168 3885
168 4237
168 4238
168 4312
168 4517
168 4540
168 4606
168 4693
168 4862
168 4965
168 5155
168 5194
168 5234
168 5362
168 5456
168 5546
168 5597
168 5820
168 5983
168 6595
168 6622
168 6968
168 7038
168 7046
168 7232
168 7270
168 7301
168 7332
168 7407
168 7411
168 7769
168 7880
168 7952
168 7977
168 8047
168 8064
168 8156
168 8325
168 8397
168 8918
168 8960
168 9325
168 9454
168 9918
168 9924
168 9937
169 186
169 190
169 209
169 217
169 271
169 284
169 298
169 345
169 534
169 736
169 785
169 789
169 826
169 1196
169 1201
169 1221
169 1291
169 1315
169 1350
169 1488
169 1612
169 1675
169 1817
169 2500
169 2663
169 2665
169 3275
169 3294
169 3374
169 3444
169 3515
169 3852
169 3878
169 4001
169 4378
169 4780
169 5340
169 5561
169 5914
169 6330
169 6446
169 6595
169 7249
169 7491
169 7681
169 7912
169 8435
169 8558
169 8652
169 8838
169 8847
169 9085
169 9333
169 9654
169 9776
169 9795
170 171
170 226
170 252
170 293
170 310
170 325
170 371
170 416
170 482
170 505
170 552
170 589
170 615
170 714
170 800
170 943
170 947
170 1306
170 1373
170 1729
170 1778
170 1925
170 1977
170 2037
170 2038
170 2091
170 2146
170 2230
170 2498
170 2579
170 2637
170 2764
170 2864
170 2921
170 3016
170 3034
170 3037
170 3171
170 3201
170 3301
170 3705
170 3732
170 3749
170 3975
170 4222
170 4280
170 4340
170 4410
170 4444
170 4644
170 4831
170 4929
170 5345
170 5636
170 5675
170 5741
170 5760
170 5931
170 6067
170 6457
170 6533
170 6613
170 6636
170 6669
170 6745
170 6749
170 6915
170 7083
170 7801
170 7901
170 7936
170 8113
170 8563
170 8983
170 9052
170 9124
170 9620
170 9724
170 9865
170 9880
171 206
171 233
171 369
171 382
171 500
171 848
171 960
171 1011
171 1128
171 1146
171 1157
171 1356
171 1597
171 1724
171 1802
171 1807
171 2114
171 2179
171 2219
171 2364
171 2769
171 2910
171 2965
171 3716
171 3931
171 4075
171 4351
171 4373
171 4455
171 5083
171 5565
171 6092
171 6195
171 6287
171 6390
171 6958
171 7725
171 9131
171 9643
171 9813
171 9826
172 180
172 205
172 238
172 248
172 274
172 313
172 329
172 348
172 455
172 484
172 505
172 556
172 571
172 581
172 592
172 626
172 638
172 740
172 779
172 802
172 931
172 958
172 988
172 1097
172 1154
172 1195
172 1226
172 1238
172 1315
172 1323
172 1327
172 1348
172 1409
172 1510
172 1664
172 1712
172 1800
172 2130
172 2312
172 2353
172 2393
172 2394
172 2459
172 2513
172 2540
172 2580
172 2645
172 2763
172 2865
172 2884
172 2953
172 3014
172 3052
172 3086
172 3148
172 3261
172 3328
172 3356
172 3504
172 3607
172 3956
172 3987
172 4092
172 4112
172 4120
172 4527
172 4587
172 4627
172 4684
172 4806
172 4854
172 5172
172 5477
172 5611
172 5709
172 5835
172 6303
172 6388
172 6617
172 6797
172 6848
172 6868
172 6948
172 7406
172 7523
172 8015
172 8143
172 8232
172 8233
172 8659
172 9141
172 9152
172 9159
172 9358
172 9477
172 9920
172 9949
173 190
173 299
173 311
173 455
173 478
173 482
173 543
173 599
173 619
173 781
173 850
173 866
173 1008
173 1109
173 1153
173 1252
173 1292
173 1323
173 1518
173 1554
173 1602
173 1605
173 1625
173 1754
173 1764
173 1794
173 1818
173 1874
173 1975
173 2020
173 2158
173 2186
173 2199
173 2277
173 2384
173 2429
173 2434
173 2531
173 2702
173 2720
173 2790
173 2814
173 2817
173 2935
173 3099
173 3100
173 3280
173 3425
173 3479
173 3480
173 3495
173 3642
173 3692
173 3925
173 4051
173 4082
173 4518
173 4538
173 4641
173 4793
173 4857
173 5062
173 5078
173 5143
173 5312
173 5327
173 5338
173 5417
173 5432
173 5714
173 5733
173 5796
173 6175
173 6374
173 6431
173 6457
173 6568
173 7178
173 7287
173 7661
173 7676
173 7908
173 8312
173 8321
173 8437
173 8507
173 8623
173 8648
173 8902
173 9084
173 9310
173 9403
173 9418
173 9797
174 206
174 255
174 296
174 348
174 476
174 669
174 673
174 870
174 1031
174 1074
174 1227
174 1242
174 1419
174 1759
174 2028
174 2178
174 2218
174 2300
174 2431
174 2593
174 2616
174 2972
174 3110
174 3863
174 4076
174 4100
174 4215
174 4805
174 4869
174 5030
174 5443
174 5651
174 5764
174 5793
174 5805
174 5849
174 5852
174 5959
174 6614
174 7024
174 7143
174 7348
174 7659
174 7860
174 8144
174 8413
174 8649
174 8732
174 8884
174 9329
174 9542
175 203
175 230
175 306
175 317
175 349
175 377
175 489
175 521
175 552
175 573
175 593
175 633
175 638
175 679
175 782
175 784
175 803
175 893
175 985
175 986
175 996
175 1053
175 1077
175 1123
175 1199
175 1284
175 1285
175 1290
175 1397
175 1543
175 1759
175 1776
175 1780
175 1813
175 1864
175 1902
175 1965
175 1971
175 1983
175 2008
175 2105
175 2139
175 2141
175 2194
175 2250
175 2272
175 2298
175 2413
175 2875
175 2914
175 2950
175 3415
175 3469
175 3589
175 3905
175 4015
175 4109
175 4117
175 4260
175 4366
175 4400
175 4444
175 4486
175 4616
175 4729
175 4902
175 4999
175 5037
175 5549
175 5571
175 5577
175 5981
175 6126
175 6162
175 6184
175 6564
175 6628
175 6808
175 7801
175 7887
175 7966
175 8106
175 8140
175 8273
175 8404
175 8462
175 8537
175 8927
175 9081
175 9312
175 9369
175 9432
175 9524
175 9734
176 186
176 189
176 236
176 373
176 528
176 621
176 853
176 929
176 983
176 1036
176 1040
176 1170
176 1239
176 1289
176 1396
176 1735
176 1874
176 2660
176 2670
176 2677
176 3293
176 3451
176 3896
176 4292
176 4305
176 4606
176 4662
176 4953
176 5116
176 5825
176 5843
176 5947
176 6082
176 6416
176 6743
176 7350
176 7557
176 8006
176 8513
176 8644
176 8662
176 8668
176 8827
176 8904
176 9593
177 295
177 316
177 365
177 415
177 617
177 619
177 641
177 725
177 801
177 840
177 995
177 1427
177 1439
177 1469
177 1608
177 1757
177 1834
177 1907
177 2036
177 2190
177 2217
177 2251
177 2510
177 2563
177 2640
177 2714
177 2748
177 2815
177 2816
177 3438
177 3698
177 3777
177 3794
177 3806
177 3978
177 4322
177 4508
177 4711
177 4757
177 4869
177 4965
177 4984
177 5187
177 5427
177 5570
177 6107
177 6207
177 6216
177 7308
177 7405
177 7500
177 7553
177 8993
177 9433
177 9738
177 9977
178 208
178 217
178 231
178 270
178 280
178 289
178 324
178 339
178 385
178 770
178 974
178 1122
178 1137
178 1250
178 1258
178 1319
178 1356
178 1469
178 1501
178 1614
178 1746
178 2145
178 2369
178 2631
178 3116
178 3295
178 3389
178 3901
178 4147
178 4298
178 4371
178 4391
178 4564
178 4588
178 5200
178 5902
178 5972
178 6023
178 6085
178 6109
178 6126
178 6466
178 6486
178 6526
178 6559
178 6682
178 6706
178 7357
178 7817
178 8151
178 8230
178 8375
178 8779
178 8845
178 8990
178 9028
178 9153
178 9234
178 9604
178 9646
178 9734
178 9873
178 9935
179 209
179 266
179 313
179 326
179 409
179 642
179 668
179 798
179 848
179 1227
179 1319
179 1465
179 1473
179 1569
179 1580
179 1941
179 2058
179 2138
179 2240
179 2504
179 2554
179 2644
179 2849
179 2899
179 2938
179 3130
179 3375
179 3780
179 3909
179 4022
179 4185
179 4192
179 4313
179 4630
179 4688
179 4821
179 5150
179 5415
179 5614
179 5761
179 6140
179 6214
179 6289
179 6704
179 6780
179 6957
179 7201
179 7273
179 7447
179 7960
179 8086
179 8403
179 8534
179 8732
179 8753
179 9254
179 9398
179 9663
180 215
180 227
180 259
180 260
180 348
180 361
180 579
180 595
180 674
180 698
180 721
180 929
180 954
180 1018
180 1221
180 1316
180 1572
180 1660
180 1770
180 1799
180 1858
180 1885
180 1926
180 1927
180 2006
180 2129
180 2219
180 2286
180 2287
180 2363
180 2426
180 2458
180 2718
180 2764
180 2863
180 2901
180 2934
180 3061
180 3106
180 3372
180 3816
180 3999
180 4045
180 4050
180 4099
180 4236
180 4369
180 4665
180 4704
180 4741
180 4743
180 5400
180 5607
180 5694
180 5695
180 5759
180 5835
180 5956
180 5978
180 6002
180 6142
180 6185
180 6356
180 6545
180 6795
180 7130
180 7314
180 7512
180 7877
180 7931
180 8927
180 9192
180 9507
180 9684
180 9983
181 229
181 254
181 360
181 367
181 386
181 397
181 408
181 446
181 476
181 663
181 681
181 684
181 730
181 776
181 802
181 804
181 992
181 999
181 1319
181 1567
181 1676
181 1714
181 1772
181 1778
181 1784
181 1822
181 1838
181 1844
181 1868
181 1886
181 2039
181 2329
181 2539
181 2674
181 2768
181 2804
181 2985
181 3384
181 4229
181 4474
181 5021
181 5213
181 5252
181 5412
181 5546
181 5999
181 6048
181 6174
181 6344
181 6437
181 6885
181 7742
181 7756
181 7913
181 7965
181 8374
181 8402
181 8755
181 8918
181 8977
181 9105
181 9532
181 9773
182 336
182 491
182 515
182 548
182 562
182 729
182 777
182 902
182 930
182 1077
182 1207
182 1334
182 1739
182 1861
182 2535
182 2856
182 3138
182 3362
182 3605
182 4123
182 4238
182 4321
182 4350
182 4397
182 5211
182 5241
182 5274
182 5342
182 5505
182 5814
182 6231
182 6369
182 6402
182 6465
182 7327
182 7477
182 7882
182 8040
182 8069
182 8072
182 8585
182 8951
182 9335
182 9566
182 9724
183 196
183 250
183 253
183 424
183 493
183 621
183 669
183 903
183 1000
183 1092
183 1171
183 1183
183 1225
183 1312
183 1411
183 1462
183 1479
183 1697
183 1699
183 1885
183 1898
183 1978
183 2092
183 2126
183 2254
183 2263
183 2331
183 2533
183 2714
183 2938
183 2994
183 3032
183 3253
183 3288
183 3336
183 3510
183 3725
183 3801
183 3828
183 3832
183 4060
183 4073
183 4185
183 4378
183 4591
183 4697
183 4818
183 5064
183 5951
183 6108
183 6794
183 7427
183 7532
183 7706
183 7964
183 8157
183 8312
183 8372
183 8562
183 8600
183 9314
183 9877
184 202
184 258
184 305
184 342
184 383
184 487
184 491
184 543
184 765
184 837
184 932
184 1044
184 1083
184 1148
184 1209
184 1397
184 1588
184 1644
184 1803
184 2009
184 2242
184 2942
184 2999
184 3063
184 3538
184 3575
184 3599
184 3895
184 4146
184 4503
184 4623
184 4866
184 4983
184 5412
184 5648
184 6042
184 6714
184 7052
184 7196
184 7784
184 8490
184 8629
184 9049
184 9117
184 9203
184 9215
184 9508
184 9814
184 9832
184 9925
185 307
185 329
185 333
185 334
185 341
185 355
185 372
185 400
185 423
185 435
185 460
185 530
185 600
185 604
185 638
185 704
185 706
185 827
185 849
185 967
185 1004
185 1031
185 1126
185 1161
185 1202
185 1270
185 1277
185 1300
185 1324
185 1365
185 1385
185 1431
185 1445
185 1536
185 1577
185 1605
185 1680
185 1681
185 1718
185 1729
185 1833
185 1862
185 1920
185 1928
185 2167
185 2191
185 2285
185 2296
185 2332
185 2499
185 2540
185 2636
185 2660
185 2794
185 2962
185 2988
185 3161
185 3202
185 3215
185 3261
185 3373
185 3414
185 3569
185 3599
185 3610
185 3772
185 3773
185 3793
185 3829
185 3847
185 3848
185 4115
185 4177
185 4227
185 4283
185 4401
185 4634
185 5199
185 5259
185 5436
185 5521
185 5638
185 5644
185 6049
185 6141
185 6159
185 6245
185 6348
185 6382
185 6821
185 6830
185 6987
185 7014
185 7048
185 7152
185 7321
185 7607
185 7823
185 8119
185 8226
185 8264
185 8713
185 8854
185 9035
185 9215
185 9240
185 9432
185 9882
185 9945
186 190
186 222
186 282
186 285
186 414
186 472
186 554
186 597
186 845
186 980
186 985
186 1114
186 1133
186 1135
186 1170
186 1192
186 1297
186 1402
186 1471
186 1512
186 1562
186 2132
186 2200
186 2268
186 2303
186 2327
186 2487
186 2564
186 2958
186 3052
186 3243
186 3287
186 3515
186 3616
186 3622
186 3831
186 3887
186 3898
186 3955
186 4050
186 4110
186 4118
186 4450
186 4732
186 4860
186 5072
186 5293
186 5305
186 5354
186 5773
186 5791
186 6103
186 6221
186 6236
186 6257
186 6357
186 6476
186 6533
186 7130
186 7541
186 7704
186 8234
186 8497
186 8645
186 8669
186 9015
186 9714
186 9961
187 211
187 277
187 315
187 352
187 414
187 576
187 644
187 655
187 739
187 804
187 822
187 970
187 1017
187 1023
187 1191
187 1210
187 1330
187 1354
187 1505
187 2102
187 2111
187 2190
187 2348
187 2710
187 2846
187 3138
187 3155
187 3582
187 3769
187 4502
187 4822
187 5361
187 5708
187 6233
187 6575
187 6608
187 6845
187 6864
187 7024
187 7293
187 7548
187 7688
187 7826
187 8007
187 8615
187 8729
187 9331
187 9396
187 9658
187 9812
188 400
188 437
188 487
188 745
188 787
188 793
188 978
188 1066
188 1209
188 1282
188 1347
188 1371
188 1383
188 1449
188 1470
188 1789
188 1802
188 1843
188 2013
188 2047
188 2220
188 2291
188 2297
188 2405
188 2967
188 2973
188 3152
188 3939
188 4016
188 4067
188 4557
188 4638
188 4737
188 5570
188 5624
188 6253
188 6291
188 6364
188 6521
188 6548
188 6788
188 6861
188 6939
188 7763
188 7870
188 8126
188 8294
188 8438
188 9040
188 9330
188 9355
188 9550
188 9560
189 209
189 255
189 294
189 320
189 519
189 738
189 774
189 987
189 1133
189 1184
189 1186
189 1281
189 1415
189 1921
189 2104
189 2149
189 2692
189 2701
189 2794
189 2868
189 3067
189 3430
189 3436
189 3622
189 3757
189 3806
189 4315
189 4451
189 4547
189 4729
189 5180
189 6028
189 6275
189 6368
189 6986
189 7179
189 7562
189 8165
189 8843
189 8937
189 9288
189 9431
189 9646
190 229
190 247
190 319
190 331
190 419
190 499
190 533
190 541
190 571
190 577
190 586
190 595
190 611
190 619
190 761
190 763
190 781
190 825
190 850
190 940
190 948
190 1064
190 1219
190 1278
190 1300
190 1357
190 1374
190 1434
190 1553
190 1566
190 1693
190 1712
190 1720
190 1954
190 2025
190 2059
190 2159
190 2398
190 2409
190 2469
190 2736
190 2800
190 2825
190 2876
190 3025
190 3057
190 3293
190 3370
190 3410
190 3493
190 3512
190 3565
190 3650
190 3688
190 4079
190 4099
190 4410
190 4430
190 4592
190 4717
190 5005
190 5074
190 5089
190 5120
190 5208
190 5290
190 6220
190 6678
190 6780
190 7229
190 7249
190 7585
190 7627
190 7852
190 7868
190 7979
190 8123
190 8490
190 8520
190 8591
190 8980
190 9501
190 9974
191 316
191 339
191 361
191 381
191 470
191 483
191 520
191 526
191 532
191 546
191 604
191 612
191 742
191 760
191 826
191 842
191 885
191 929
191 973
191 997
191 1070
191 1241
191 1268
191 1283
191 1346
191 1355
191 1428
191 1628
191 1674
191 1681
191 1699
191 1741
191 1816
191 1912
191 1944
191 2100
191 2365
191 2402
191 2599
191 2671
191 2705
191 2729
191 2746
191 2922
191 2974
191 3047
191 3374
191 3636
191 3695
191 3717
191 3735
191 3901
191 3959
191 3993
191 4134
191 4362
191 4687
191 4727
191 4790
191 5155
191 5217
191 5281
191 5314
191 5449
191 5967
191 6169
191 6199
191 6419
191 6753
191 7398
191 7445
191 7809
191 8201
191 8687
191 8847
191 9007
191 9120
191 9186
191 9311
191 9640
191 9650
191 9792
191 9960
192 204
192 212
192 225
192 242
192 246
192 255
192 300
192 384
192 407
192 442
192 469
192 507
192 512
192 555
192 563
192 566
192 626
192 727
192 815
192 842
192 945
192 1142
192 1143
192 1291
192 1374
192 1489
192 1532
192 1538
192 1606
192 1610
192 1793
192 1937
192 2183
192 2337
192 2432
192 2532
192 2683
192 2781
192 3146
192 3286
192 3581
192 3736
192 3863
192 4051
192 4092
192 4108
192 4344
192 4428
192 4582
192 4648
192 4651
192 4677
192 4725
192 4753
192 5188
192 5315
192 5443
192 5776
192 5901
192 6040
192 6050
192 6415
192 6482
192 6506
192 6928
192 7433
192 7499
192 7691
192 7706
192 7786
192 8075
192 8136
192 8157
192 8219
192 8697
192 9137
192 9801
192 9864
193 251
193 285
193 296
193 451
193 480
193 557
193 798
193 827
193 1397
193 1426
193 1598
193 1965
193 2423
193 2594
193 2820
193 4371
193 4793
193 5383
193 5608
193 5709
193 6144
193 6279
193 6356
193 6714
193 7212
193 7288
193 7324
193 7577
193 8083
193 8606
193 8784
193 9355
193 9580
193 9669
194 282
194 314
194 328
194 411
194 440
194 482
194 608
194 630
194 714
194 788
194 803
194 849
194 1294
194 1580
194 1725
194 1738
194 1742
194 1847
194 2515
194 2631
194 2759
194 2896
194 2950
194 2961
194 3157
194 3235
194 3439
194 3467
194 3697
194 3834
194 3864
194 4242
194 4461
194 4736
194 4789
194 4902
194 4948
194 5549
194 5586
194 5616
194 5751
194 5915
194 6153
194 6498
194 6652
194 6824
194 6839
194 6996
194 7143
194 7164
194 7182
194 7440
194 7445
194 8103
194 8441
194 9058
194 9667
194 9709
195 216
195 248
195 352
195 449
195 610
195 814
195 1123
195 1224
195 1490
195 1679
195 1727
195 2086
195 2108
195 2325
195 2422
195 2655
195 2692
195 2704
195 2720
195 2932
195 2960
195 3053
195 3057
195 3421
195 3594
195 3664
195 3902
195 4360
195 4389
195 4404
195 4591
195 4719
195 4752
195 5093
195 5107
195 5171
195 5827
195 5835
195 6188
195 6302
195 6503
195 7717
195 8039
195 8106
195 8550
195 8838
195 9344
195 9478
195 9499
195 9628
195 9694
195 9976
196 210
196 269
196 271
196 303
196 331
196 429
196 454
196 559
196 689
196 780
196 829
196 841
196 913
196 927
196 1041
196 1113
196 1232
196 1851
196 2129
196 2193
196 2374
196 2424
196 2467
196 2469
196 2692
196 3208
196 3294
196 3352
196 3430
196 3529
196 3587
196 3738
196 3921
196 3984
196 4076
196 4210
196 4239
196 4636
196 4717
196 4926
196 4985
196 5272
196 5374
196 5688
196 5909
196 6655
196 6682
196 6883
196 7055
196 8278
196 8465
196 8577
196 8588
196 9720
197 201
197 240
197 290
197 310
197 328
197 364
197 369
197 524
197 542
197 544
197 564
197 575
197 696
197 864
197 958
197 1030
197 1204
197 1222
197 1229
197 1254
197 1273
197 1318
197 1335
197 1380
197 1466
197 1500
197 1558
197 1632
197 1971
197 2011
197 2127
197 2368
197 2453
197 2488
197 2776
197 3494
197 3517
197 3940
197 3948
197 4069
197 4128
197 4144
197 4352
197 4428
197 4565
197 4920
197 5604
197 5710
197 5963
197 6188
197 6477
197 6753
197 6783
197 6795
197 6823
197 6833
197 6999
197 7443
197 7734
197 8041
197 8221
197 8236
197 8415
197 8525
197 8555
197 8824
197 9070
197 9276
197 9701
197 9770
197 9804
198 253
198 269
198 335
198 344
198 378
198 382
198 383
198 502
198 515
198 692
198 757
198 961
198 994
198 1159
198 1283
198 1354
198 1418
198 1436
198 1505
198 1697
198 1892
198 2138
198 2326
198 2331
198 2389
198 2421
198 2593
198 2621
198 2719
198 2757
198 2848
198 2858
198 2860
198 2979
198 3178
198 3352
198 3442
198 3680
198 4316
198 4555
198 4623
198 4873
198 4884
198 5168
198 5486
198 5896
198 6104
198 6440
198 6556
198 6961
198 6982
198 6993
198 7336
198 7558
198 7601
198 8169
198 8185
198 8409
198 8619
198 9052
198 9576
198 9909
199 204
199 253
199 260
199 290
199 297
199 301
199 374
199 509
199 534
199 693
199 851
199 1017
199 1076
199 1080
199 1086
199 1162
199 1325
199 1428
199 1531
199 1612
199 1669
199 1674
199 1811
199 1997
199 2103
199 2445
199 2479
199 2989
199 3020
199 3079
199 3186
199 3292
199 3580
199 3762
199 3811
199 3890
199 3923
199 4040
199 4181
199 4562
199 4911
199 5121
199 5123
199 5365
199 5739
199 5803
199 5879
199 5939
199 6258
199 7424
199 7456
199 7812
199 7825
199 7887
199 7895
199 7900
199 9144
199 9874
199 9931
200 243
200 265
200 266
200 362
200 373
200 406
200 458
200 575
200 576
200 585
200 606
200 646
200 667
200 708
200 750
200 760
200 841
200 918
200 920
200 964
200 965
200 1416
200 1545
200 1604
200 1608
200 1763
200 1915
200 1963
200 1987
200 2029
200 2420
200 2556
200 2898
200 3335
200 3354
200 3408
200 3452
200 3579
200 3667
200 3796
200 3797
200 3822
200 3920
200 4091
200 4199
200 4880
200 5579
200 6022
200 6033
200 6097
200 6870
200 6903
200 7024
200 7221
200 7397
200 7527
200 8323
200 8419
200 8503
200 8935
200 9175
200 9415
200 9719
200 9725
200 9829
200 9869
201 239
201 510
201 922
201 1287
201 2180
201 2416
201 2426
201 2458
201 2636
201 2672
201 2927
201 3101
201 3255
201 3812
201 3922
201 3924
201 4116
201 4146
201 4707
201 4793
201 5308
201 5318
201 6069
201 6286
201 6291
201 6326
201 7236
201 8129
201 8177
201 8542
201 8964
201 9251
201 9530
201 9582
201 9827
202 212
202 214
202 220
202 221
202 225
202 245
202 327
202 346
202 398
202 466
202 525
202 629
202 708
202 779
202 948
202 970
202 974
202 1066
202 1096
202 1119
202 1211
202 1256
202 1302
202 1459
202 1467
202 1493
202 1496
202 1591
202 1613
202 1617
202 1644
202 1677
202 1895
202 1950
202 2128
202 2155
202 2223
202 2281
202 2324
202 2416
202 2613
202 2706
202 2755
202 2796
202 2866
202 2953
202 3200
202 3211
202 3225
202 3475
202 3495
202 3607
202 3628
202 3714
202 3718
202 3841
202 3943
202 3999
202 4023
202 4046
202 4688
202 5092
202 5102
202 5139
202 5166
202 5178
202 5270
202 5747
202 5758
202 5815
202 5940
202 6157
202 6206
202 6281
202 6352
202 6380
202 6402
202 6455
202 6754
202 6784
202 6909
202 6987
202 7064
202 7629
202 7790
202 7829
202 8085
202 8253
202 8452
202 8483
202 8532
202 8559
202 8712
202 8741
202 8767
202 8807
202 9052
202 9273
202 9448
202 9815
202 9819
202 9920
202 9946
203 259
203 419
203 715
203 1123
203 1171
203 1235
203 1279
203 1704
203 1819
203 1896
203 2304
203 2328
203 2351
203 2399
203 2510
203 2556
203 2719
203 2790
203 2835
203 3060
203 3296
203 3433
203 3440
203 4045
203 4406
203 4560
203 4793
203 4871
203 4945
203 4956
203 5362
203 5367
203 5381
203 5887
203 6110
203 6293
203 6460
203 6532
203 6870
203 6908
203 6980
203 7609
203 7699
203 7804
203 8080
203 8171
203 8393
203 8651
203 9309
203 9333
203 9928
204 227
204 236
204 276
204 278
204 428
204 480
204 534
204 582
204 655
204 678
204 702
204 728
204 817
204 845
204 908
204 947
204 1057
204 1093
204 1115
204 1132
204 1390
204 1544
204 1600
204 1602
204 1931
204 2025
204 2077
204 2080
204 2128
204 2180
204 2214
204 2246
204 2566
204 2587
204 2742
204 2752
204 2797
204 2805
204 3227
204 3238
204 3582
204 3647
204 3968
204 4070
204 4251
204 5592
204 6503
204 6574
204 6591
204 7187
204 7255
204 7670
204 7815
204 7918
204 7925
204 8277
204 8325
204 8449
204 8845
204 8951
204 9330
204 9350
204 9438
205 213
205 230
205 237
205 242
205 244
205 245
205 336
205 396
205 508
205 518
205 535
205 590
205 665
205 743
205 771
205 793
205 806
205 826
205 836
205 995
205 1043
205 1089
205 1214
205 1249
205 1455
205 1487
205 1543
205 1580
205 1594
205 1638
205 1649
205 1766
205 1771
205 1830
205 1866
205 1938
205 2143
205 2331
205 2383
205 2566
205 2741
205 2758
205 2819
205 3100
205 3123
205 3130
205 3262
205 3439
205 3509
205 3560
205 3621
205 3645
205 3847
205 3905
205 3925
205 3992
205 4042
205 4167
205 4217
205 4295
205 4328
205 4366
205 4431
205 4486
205 4562
205 4931
205 4993
205 5202
205 5495
205 5578
205 5604
205 6019
205 6223
205 6230
205 6346
205 6604
205 6695
205 6914
205 6924
205 6954
205 6970
205 7032
205 7071
205 7186
205 7555
205 7599
205 7644
205 7678
205 7800
205 7868
205 8008
205 8244
205 8616
205 8641
205 8756
205 9080
205 9225
205 9257
205 9398
205 9704
205 9752
205 9858
205 9868
206 228
206 232
206 418
206 439
206 488
206 560
206 577
206 617
206 624
206 631
206 633
206 651
206 861
206 1025
206 1087
206 1095
206 1122
206 1233
206 1297
206 1325
206 1415
206 1431
206 1826
206 1847
206 1859
206 2139
206 2172
206 2194
206 2329
206 2330
206 2356
206 2426
206 2569
206 2583
206 2633
206 2658
206 2756
206 2821
206 4009
206 4184
206 4231
206 4292
206 4348
206 4549
206 4569
206 4679
206 4695
206 5081
206 5229
206 5721
206 5836
206 5935
206 6032
206 6051
206 6192
206 6335
206 6559
206 6943
206 7084
206 7221
206 7315
206 7416
206 7475
206 7837
206 8041
206 8166
206 8705
206 8924
206 8958
206 9103
206 9498
206 9574
206 9801
206 9848
206 9979
207 210
207 216
207 232
207 256
207 272
207 302
207 303
207 387
207 413
207 492
207 625
207 738
207 877
207 906
207 928
207 1037
207 1348
207 1398
207 1459
207 1469
207 1680
207 1687
207 1759
207 1854
207 2064
207 2122
207 2358
207 2560
207 2641
207 2715
207 2981
207 3620
207 3695
207 3740
207 3755
207 3915
207 4165
207 4372
207 4646
207 4807
207 4852
207 4898
207 4919
207 5024
207 5028
207 5089
207 5298
207 5372
207 5515
207 5701
207 5887
207 5897
207 6056
207 6127
207 6906
207 7481
207 7565
207 7752
207 7946
207 8227
207 8346
207 8558
207 9378
207 9497
208 330
208 387
208 616
208 761
208 1027
208 1265
208 1315
208 1390
208 1960
208 1979
208 2039
208 2083
208 2109
208 2111
208 2934
208 3138
208 3158
208 3296
208 3403
208 4134
208 4272
208 4398
208 4734
208 5165
208 5278
208 5756
208 6232
208 6529
208 6945
208 6983
208 7884
208 8053
208 8378
208 8436
208 8993
208 9025
208 9230
208 9676
209 272
209 327
209 349
209 400
209 488
209 516
209 591
209 624
209 639
209 697
209 767
209 881
209 902
209 1037
209 1095
209 1113
209 1154
209 1320
209 1704
209 2214
209 2219
209 2557
209 2622
209 2930
209 2934
209 3030
209 3512
209 3514
209 3550
209 4158
209 4325
209 4508
209 4555
209 4623
209 4848
209 4952
209 5350
209 5499
209 5530
209 5618
209 6010
209 6298
209 6455
209 6563
209 6680
209 6801
209 7220
209 7441
209 7488
209 7495
209 8051
209 8499
209 8774
209 8775
209 9079
209 9131
210 226
210 269
210 282
210 314
210 395
210 687
210 705
210 718
210 818
210 1327
210 1359
210 1548
210 1586
210 1652
210 1755
210 1946
210 1957
210 2034
210 2401
210 2497
210 2557
210 2572
210 2710
210 2834
210 2869
210 2987
210 3006
210 3641
210 3703
210 3758
210 3771
210 3846
210 3924
210 4140
210 4287
210 4337
210 4382
210 4511
210 4666
210 4709
210 4716
210 4895
210 4906
210 5091
210 5105
210 5124
210 5406
210 5418
210 5579
210 6138
210 6454
210 6480
210 6584
210 6663
210 6744
210 6889
210 7123
210 7270
210 7282
210 7306
210 7482
210 7576
210 7769
210 8556
210 8735
210 9077
210 9088
210 9265
210 9543
210 9995
211 288
211 301
211 367
211 394
211 409
211 465
211 503
211 557
211 616
211 694
211 762
211 864
211 895
211 1013
211 1078
211 1100
211 1167
211 1241
211 1264
211 1289
211 1321
211 1349
211 1385
211 1546
211 1565
211 1758
211 1786
211 1953
211 1989
211 2032
211 2122
211 2570
211 2589
211 2824
211 2967
211 2983
211 3390
211 3434
211 3437
211 3445
211 3456
211 3472
211 3703
211 3854
211 3911
211 3963
211 4342
211 4465
211 4584
211 4645
211 4692
211 4693
211 5100
211 5480
211 5516
211 5593
211 5748
211 5939
211 5979
211 6053
211 6066
211 6243
211 6417
211 6451
211 6517
211 6753
211 6877
211 7304
211 7607
211 7728
211 7823
211 7855
211 7873
211 8013
211 8091
211 8221
211 8257
211 8402
211 8472
211 8543
211 9061
211 9297
211 9305
211 9406
211 9456
211 9608
211 9706
211 9747
211 9791
212 221
212 238
212 315
212 318
212 329
212 340
212 344
212 564
212 627
212 846
212 850
212 900
212 908
212 935
212 941
212 954
212 1127
212 1205
212 1261
212 1376
212 1441
212 1850
212 1852
212 1951
212 2145
212 2181
212 2277
212 2344
212 2533
212 2958
212 3000
212 3417
212 4059
212 4125
212 4390
212 4536
212 4905
212 4935
212 5288
212 5700
212 6316
212 6582
212 6800
212 6987
212 7126
212 7170
212 7299
212 8052
212 8620
212 8943
212 9037
212 9193
212 9635
213 215
213 220
213 265
213 448
213 464
213 500
213 578
213 583
213 586
213 598
213 660
213 843
213 1052
213 1056
213 1224
213 1229
213 1232
213 1248
213 1311
213 1376
213 1497
213 1591
213 1598
213 1782
213 1802
213 1876
213 1901
213 2032
213 2072
213 2224
213 2232
213 2372
213 2455
213 2704
213 2900
213 2974
213 3005
213 3232
213 3287
213 3440
213 3852
213 3911
213 4084
213 4341
213 4378
213 4380
213 4526
213 4552
213 4892
213 5161
213 5245
213 5497
213 5500
213 5559
213 5925
213 6216
213 6329
213 6731
213 6816
213 7065
213 7975
213 8218
213 9599
214 224
214 268
214 276
214 295
214 301
214 344
214 357
214 368
214 375
214 438
214 539
214 544
214 571
214 578
214 606
214 626
214 649
214 731
214 916
214 982
214 998
214 1142
214 1365
214 1420
214 1522
214 2355
214 2463
214 2472
214 2559
214 2612
214 2672
214 2841
214 2926
214 3084
214 3194
214 3209
214 3337
214 3383
214 3565
214 3578
214 3668
214 3716
214 3734
214 3813
214 3835
214 3910
214 4009
214 4427
214 4432
214 4458
214 4514
214 4929
214 4955
214 5044
214 5179
214 5275
214 5407
214 5410
214 5762
214 6118
214 6156
214 6369
214 6444
214 6527
214 6758
214 7026
214 7035
214 7215
214 7294
214 7630
214 8054
214 8254
214 8543
214 8670
214 8693
214 8940
214 8983
214 9333
214 9412
214 9799
214 9921
215 230
215 244
215 273
215 361
215 388
215 481
215 553
215 777
215 963
215 1048
215 1182
215 1217
215 1220
215 1385
215 1402
215 1758
215 1904
215 1946
215 2070
215 2095
215 2150
215 2632
215 2767
215 3641
215 4206
215 4369
215 4432
215 4630
215 4890
215 5289
215 5758
215 5829
215 6145
215 6189
215 6392
215 6942
215 7191
215 7833
215 8314
215 8795
215 9411
215 9593
215 9673
215 9678
215 9907
216 223
216 239
216 436
216 1082
216 1133
216 1235
216 1269
216 1321
216 1396
216 1414
216 1539
216 1668
216 1769
216 2221
216 2715
216 3095
216 3406
216 3698
216 3704
216 3807
216 4118
216 4150
216 4230
216 4609
216 5397
216 5589
216 5617
216 5629
216 5670
216 6756
216 7497
216 7732
216 7778
216 8704
216 8755
217 226
217 297
217 345
217 347
217 348
217 427
217 457
217 527
217 529
217 558
217 580
217 640
217 741
217 922
217 1056
217 1076
217 1358
217 1468
217 1469
217 1478
217 1720
217 1914
217 2168
217 2245
217 2291
217 2305
217 2488
217 2528
217 2772
217 2940
217 2944
217 3165
217 3373
217 3431
217 3461
217 3535
217 3719
217 3724
217 4131
217 4155
217 4324
217 4654
217 4812
217 4814
217 4865
217 5010
217 5356
217 5597
217 5948
217 6377
217 6670
217 6976
217 7069
217 7259
217 7372
217 7403
217 7535
217 7560
217 7613
217 8021
217 8076
217 9013
217 9104
217 9400
217 9534
217 9753
217 9894
218 224
218 226
218 343
218 463
218 484
218 497
218 524
218 763
218 948
218 975
218 982
218 1067
218 1081
218 1132
218 1175
218 1312
218 1339
218 1401
218 1457
218 1697
218 1725
218 1775
218 2572
218 2791
218 3098
218 3143
218 3374
218 3534
218 3790
218 3846
218 4190
218 4217
218 4231
218 4432
218 4621
218 5806
218 5824
218 5868
218 6061
218 6079
218 6084
218 6155
218 6333
218 6563
218 6715
218 6773
218 6900
218 6902
218 7045
218 7337
218 7517
218 8028
218 8066
218 8226
218 8659
218 9236
218 9598
219 286
219 452
219 457
219 594
219 606
219 715
219 736
219 750
219 821
219 853
219 897
219 1072
219 1429
219 1487
219 2046
219 2051
219 2137
219 2373
219 2395
219 2463
219 3279
219 3595
219 3650
219 3756
219 3778
219 3874
219 4289
219 4422
219 4460
219 4510
219 4850
219 4861
219 5210
219 5390
219 5578
219 5847
219 5861
219 6029
219 6393
219 7405
219 7788
219 8441
219 8741
219 9049
219 9662
219 9957
220 323
220 540
220 743
220 843
220 1105
220 1412
220 1520
220 1529
220 1588
220 1615
220 1666
220 1730
220 1864
220 2341
220 2612
220 2952
220 2974
220 3291
220 3569
220 3759
220 3802
220 4015
220 4115
220 4483
220 4577
220 5330
220 5334
220 5346
220 5429
220 5790
220 5913
220 6293
220 6350
220 6906
220 7426
220 7486
220 7588
220 8786
220 8887
220 9066
220 9482
220 9959
220 9989
221 354
221 434
221 442
221 493
221 517
221 534
221 622
221 739
221 744
221 782
221 904
221 925
221 946
221 951
221 997
221 1005
221 1020
221 1080
221 1259
221 1330
221 1346
221 1389
221 1394
221 1434
221 1696
221 1758
221 1803
221 1853
221 1974
221 1982
221 2067
221 2138
221 2495
221 2592
221 2708
221 2760
221 2864
221 3071
221 3226
221 3482
221 3591
221 3603
221 4181
221 4243
221 4444
221 4450
221 4754
221 4910
221 5261
221 5490
221 5536
221 5546
221 5599
221 5641
221 5705
221 5836
221 6176
221 6348
221 6620
221 6730
221 7106
221 7237
221 7391
221 7799
221 7930
221 8886
221 9104
221 9118
221 9135
221 9216
221 9338
221 9431
221 9476
221 9610
221 9621
222 225
222 335
222 368
222 440
222 549
222 555
222 568
222 665
222 813
222 814
222 887
222 979
222 1009
222 1021
222 1106
222 1275
222 1359
222 1500
222 1514
222 1549
222 1640
222 1658
222 1751
222 1892
222 2126
222 2197
222 2274
222 2437
222 2680
222 2817
222 2909
222 2944
222 3025
222 3132
222 3388
222 3614
222 3679
222 3847
222 3964
222 4088
222 4202
222 4217
222 4544
222 4651
222 4714
222 5330
222 5488
222 5521
222 5649
222 6011
222 6274
222 6388
222 6401
222 6556
222 6582
222 6637
222 6652
222 6846
222 6911
222 8440
222 8449
222 8868
222 8896
222 9991
223 257
223 439
223 538
223 616
223 697
223 1115
223 1145
223 1238
223 1427
223 1533
223 1654
223 1798
223 1822
223 1940
223 2534
223 2666
223 2975
223 3146
223 3652
223 4144
223 4239
223 4713
223 4923
223 5058
223 5272
223 5308
223 5659
223 5889
223 6401
223 6452
223 6674
223 6840
223 7817
223 7882
223 7884
223 7940
223 9700
224 228
224 239
224 259
224 270
224 273
224 356
224 362
224 478
224 615
224 634
224 747
224 847
224 924
224 1199
224 1262
224 1388
224 1441
224 1507
224 1678
224 1708
224 1840
224 1982
224 2213
224 2452
224 2760
224 2853
224 3090
224 3185
224 3226
224 3229
224 3286
224 3466
224 3580
224 3830
224 3840
224 4078
224 4223
224 4740
224 5221
224 6301
224 6307
224 6370
224 6833
224 7043
224 7412
224 7437
224 7473
224 8068
224 9411
224 9907
225 274
225 341
225 396
225 398
225 421
225 505
225 511
225 532
225 541
225 589
225 664
225 715
225 1053
225 1422
225 1445
225 1486
225 1559
225 1667
225 1741
225 1760
225 2142
225 2232
225 2249
225 2340
225 2437
225 2480
225 2631
225 2742
225 2896
225 2930
225 3147
225 3159
225 3176
225 3632
225 3775
225 4507
225 4561
225 5568
225 5642
225 5865
225 5899
225 5939
225 5941
225 6184
225 6193
225 6397
225 6576
225 6956
225 7072
225 8271
225 8356
225 8954
225 9177
225 9274
225 9621
225 9911
226 252
226 272
226 390
226 510
226 519
226 730
226 744
226 895
226 1117
226 1138
226 1165
226 1400
226 1879
226 1880
226 2026
226 2169
226 2295
226 2436
226 3028
226 3112
226 3124
226 3201
226 3525
226 3648
226 3866
226 3916
226 4363
226 4366
226 4949
226 5567
226 5718
226 6015
226 6223
226 6376
226 6377
226 6535
226 7048
226 7086
226 7602
226 7639
226 7706
226 7845
226 8435
226 8443
226 9015
226 9209
226 9982
227 235
227 253
227 272
227 546
227 597
227 952
227 1041
227 1155
227 1397
227 1720
227 2106
227 2293
227 2377
227 2538
227 2567
227 2662
227 2731
227 2884
227 2990
227 3087
227 3117
227 3212
227 3319
227 3492
227 3589
227 3647
227 4397
227 4421
227 5006
227 5293
227 5444
227 5666
227 5677
227 5690
227 5846
227 6364
227 6833
227 7182
227 7386
227 7392
227 7672
227 7717
227 8078
227 8600
227 8667
227 8775
227 9045
227 9402
227 9716
228 265
228 297
228 329
228 391
228 478
228 524
228 613
228 637
228 654
228 676
228 734
228 800
228 886
228 983
228 1156
228 1180
228 1183
228 1310
228 1372
228 1380
228 1454
228 1502
228 1520
228 1539
228 1604
228 1674
228 1680
228 1824
228 1858
228 1865
228 1947
228 2031
228 2114
228 2134
228 2275
228 2336
228 2412
228 2533
228 2554
228 2563
228 2721
228 2788
228 2887
228 2951
228 3040
228 3099
228 3274
228 3374
228 3429
228 3448
228 3508
228 3555
228 3730
228 3804
228 4003
228 4177
228 4632
228 4679
228 4722
228 4729
228 4765
228 5168
228 5201
228 5310
228 5358
228 5430
228 5496
228 5546
228 5578
228 5645
228 5662
228 5755
228 6257
228 6410
228 6415
228 6576
228 7239
228 7484
228 7838
228 7849
228 7951
228 8161
228 8164
228 8476
228 8519
228 8638
228 8706
228 9520
228 9774
228 9845
229 247
229 297
229 308
229 349
229 350
229 373
229 378
229 459
229 564
229 570
229 599
229 677
229 1045
229 1104
229 1152
229 1175
229 1649
229 1728
229 1810
229 1834
229 1836
229 1864
229 2148
229 2296
229 2471
229 2539
229 2653
229 2708
229 3123
229 3298
229 3482
229 3536
229 3549
229 3784
229 3842
229 3903
229 4415
229 4730
229 4782
229 5414
229 6170
229 6278
229 6359
229 6411
229 6629
229 6831
229 6872
229 6874
229 6898
229 7268
229 7395
229 7605
229 7716
229 7802
229 8062
229 8302
229 8331
229 8739
229 8854
229 9043
229 9091
229 9101
229 9137
229 9513
229 9796
229 9965
230 234
230 251
230 323
230 430
230 475
230 549
230 575
230 630
230 704
230 715
230 783
230 830
230 856
230 1061
230 1188
230 1404
230 1628
230 1722
230 1853
230 1860
230 2193
230 2249
230 2348
230 2370
230 2602
230 2886
230 3007
230 3485
230 3525
230 3831
230 3940
230 4087
230 4143
230 4244
230 4387
230 4598
230 4635
230 4720
230 6038
230 6411
230 6552
230 6573
230 6937
230 7066
230 7090
230 7309
230 7989
230 8080
230 8178
230 8222
230 8893
231 250
231 365
231 380
231 770
231 837
231 851
231 858
231 868
231 911
231 967
231 1149
231 1169
231 1463
231 1561
231 1588
231 2293
231 2420
231 2500
231 2716
231 2828
231 2830
231 2845
231 2847
231 3046
231 3433
231 3795
231 4054
231 4250
231 4962
231 6012
231 7808
231 7974
231 8144
231 8806
231 9196
232 239
232 287
232 297
232 386
232 460
232 466
232 530
232 572
232 574
232 584
232 664
232 850
232 885
232 959
232 1023
232 1041
232 1130
232 1213
232 1218
232 1329
232 1419
232 1459
232 1466
232 1489
232 1550
232 1573
232 1740
232 1786
232 1829
232 1856
232 1986
232 2141
232 2233
232 2399
232 2459
232 2516
232 2683
232 2860
232 3363
232 3507
232 3776
232 3832
232 3847
232 4007
232 4116
232 4529
232 4695
232 4705
232 4894
232 4967
232 5022
232 5556
232 5642
232 5660
232 5662
232 5794
232 5854
232 6106
232 6116
232 6297
232 6458
232 6725
232 6840
232 7889
232 8281
232 9405
232 9502
232 9541
232 9590
232 9748
232 9817
232 9862
233 269
233 292
233 319
233 346
233 364
233 409
233 874
233 1030
233 1054
233 1119
233 1208
233 1640
233 2043
233 2528
233 3079
233 3325
233 3394
233 3692
233 3770
233 5313
233 5669
233 5684
233 6003
233 6157
233 6590
233 7172
233 7736
233 8135
233 8802
233 9266
233 9304
233 9532
234 245
234 662
234 997
234 1163
234 1164
234 1230
234 1363
234 1911
234 2506
234 2513
234 2527
234 2647
234 2836
234 2991
234 3208
234 3564
234 3678
234 4104
234 4416
234 4644
234 4888
234 5003
234 5475
234 5654
234 5792
234 5875
234 6023
234 6097
234 6181
234 6333
234 6869
234 7591
234 7682
234 8054
234 8228
234 8394
234 8789
234 8995
235 268
235 272
235 379
235 385
235 427
235 436
235 528
235 588
235 601
235 627
235 629
235 813
235 839
235 931
235 987
235 1010
235 1101
235 1152
235 1181
235 1252
235 1269
235 1288
235 1303
235 1342
235 1355
235 1426
235 1707
235 1723
235 1744
235 1772
235 1790
235 1808
235 1855
235 2001
235 2514
235 2709
235 2862
235 2991
235 3019
235 3063
235 3342
235 3502
235 3719
235 3996
235 4071
235 4137
235 4875
235 5125
235 5141
235 5228
235 5451
235 5572
235 5772
235 6081
235 6243
235 6274
235 6572
235 6581
235 6788
235 6982
235 7023
235 7039
235 7047
235 7062
235 7149
235 7198
235 7239
235 7339
235 7414
235 7448
235 8051
235 8268
235 8435
235 8504
235 8634
235 8871
235 8991
235 9097
235 9894
235 9943
236 267
236 282
236 298
236 308
236 342
236 363
236 415
236 438
236 503
236 526
236 537
236 628
236 684
236 799
236 950
236 952
236 1064
236 1185
236 1409
236 1437
236 1457
236 1649
236 1680
236 1682
236 1808
236 1930
236 2081
236 2208
236 2308
236 2383
236 3027
236 3194
236 3301
236 3735
236 3839
236 4312
236 4529
236 4765
236 5017
236 5146
236 5204
236 5557
236 5869
236 5943
236 6032
236 6088
236 6167
236 6957
236 6991
236 7098
236 7125
236 8169
236 8470
236 8550
236 8884
236 9474
236 9592
236 9645
236 9691
237 258
237 377
237 465
237 657
237 724
237 827
237 842
237 867
237 916
237 928
237 1013
237 1015
237 1044
237 1071
237 1124
237 1155
237 1291
237 1756
237 1782
237 1980
237 2265
237 2566
237 2643
237 2707
237 2802
237 2980
237 3412
237 3751
237 4001
237 4043
237 4323
237 4616
237 4865
237 4909
237 5205
237 5971
237 6094
237 6708
237 6736
237 7311
237 7481
237 7605
237 8473
237 8680
237 8839
237 9483
238 249
238 263
238 267
238 300
238 339
238 390
238 428
238 433
238 483
238 529
238 717
238 774
238 788
238 831
238 875
238 923
238 930
238 967
238 1020
238 1121
238 1402
238 1449
238 1476
238 1509
238 1514
238 1615
238 1679
238 1799
238 1833
238 1839
238 2099
238 2202
238 2287
238 2354
238 2358
238 2532
238 2570
238 2615
238 2799
238 2946
238 3007
238 3032
238 3051
238 3246
238 3350
238 3636
238 3700
238 3732
238 3874
238 4096
238 4111
238 4554
238 4600
238 4630
238 4711
238 4719
238 4752
238 4775
238 4873
238 5124
238 5939
238 5993
238 6124
238 6244
238 6500
238 6525
238 6701
238 6938
238 7272
238 7332
238 8621
238 8683
238 8787
238 8851
238 8953
238 9065
238 9180
238 9914
238 9978
239 429
239 504
239 546
239 630
239 675
239 784
239 828
239 1031
239 1184
239 1579
239 1635
239 1656
239 1709
239 1739
239 1914
239 2124
239 2314
239 2381
239 2402
239 2590
239 2595
239 2848
239 3004
239 3092
239 3386
239 3392
239 3575
239 4098
239 4114
239 4405
239 4449
239 4487
239 4794
239 4800
239 4931
239 5026
239 5334
239 6091
239 7034
239 7222
239 8051
239 8469
239 8552
239 8665
239 8896
239 9003
239 9430
239 9964
240 248
240 278
240 279
240 293
240 299
240 328
240 338
240 363
240 394
240 495
240 507
240 535
240 541
240 624
240 669
240 745
240 815
240 1159
240 1198
240 1438
240 1464
240 1663
240 1676
240 1677
240 1752
240 1803
240 1882
240 2048
240 2080
240 2110
240 2181
240 2419
240 2620
240 2902
240 3047
240 3430
240 3450
240 3597
240 3677
240 3770
240 4018
240 4032
240 4091
240 4197
240 4317
240 4705
240 4932
240 4971
240 4976
240 5032
240 5149
240 5404
240 5521
240 5768
240 5950
240 5952
240 6115
240 6240
240 6451
240 6711
240 6896
240 6936
240 7037
240 7084
240 7136
240 8250
240 8260
240 8483
240 8528
240 8554
240 9005
240 9011
240 9017
240 9044
240 9686
241 277
241 316
241 317
241 330
241 388
241 404
241 438
241 452
241 454
241 470
241 489
241 592
241 675
241 812
241 819
241 856
241 990
241 1048
241 1294
241 1451
241 1461
241 1515
241 1605
241 1667
241 1748
241 1796
241 1876
241 1921
241 1948
241 2056
241 2126
241 2257
241 2279
241 2286
241 2314
241 2315
241 2359
241 2441
241 2602
241 2700
241 2710
241 2735
241 2757
241 2779
241 2844
241 2855
241 2887
241 2891
241 3102
241 3205
241 3227
241 3245
241 3293
241 3362
241 3399
241 3429
241 3670
241 3672
241 3755
241 3763
241 3812
241 3924
241 3951
241 3957
241 3981
241 4028
241 4121
241 4281
241 4486
241 4542
241 4657
241 4673
241 4920
241 4979
241 5011
241 5229
241 5365
241 5408
241 5770
241 5850
241 6027
241 6033
241 6128
241 6192
241 6367
241 6818
241 6858
241 6954
241 7154
241 7357
241 7443
241 7486
241 7510
241 7763
241 7896
241 8004
241 8062
241 8078
241 8560
241 8592
241 9039
241 9166
241 9171
241 9246
241 9443
241 9522
242 345
242 370
242 394
242 421
242 564
242 569
242 623
242 659
242 720
242 815
242 914
242 932
242 949
242 1166
242 1282
242 1364
242 1577
242 1581
242 1699
242 1761
242 1992
242 2041
242 2146
242 2311
242 2424
242 2548
242 2659
242 2751
242 2902
242 2956
242 2993
242 3019
242 3022
242 3106
242 3238
242 3578
242 3649
242 3662
242 3782
242 3888
242 4019
242 4132
242 4330
242 4509
242 4753
242 4925
242 5054
242 5174
242 5389
242 5426
242 5585
242 5596
242 5857
242 5867
242 5883
242 5914
242 5916
242 5989
242 6126
242 6193
242 6741
242 7095
242 7682
242 8075
242 8308
242 8427
242 8466
242 8933
242 9551
242 9569
242 9653
243 322
243 434
243 501
243 522
243 667
243 776
243 816
243 869
243 1023
243 1062
243 1115
243 1117
243 1165
243 1201
243 1304
243 1320
243 1497
243 1635
243 1703
243 1810
243 1976
243 2111
243 2354
243 2444
243 2449
243 2697
243 2787
243 2818
243 2907
243 3019
243 3410
243 3767
243 4161
243 4467
243 4826
243 5337
243 5431
243 5584
243 5784
243 6071
243 6081
243 6110
243 6205
243 6246
243 6402
243 6408
243 6650
243 6657
243 6671
243 7161
243 7184
243 7396
243 7521
243 7570
243 7995
243 8026
243 8151
243 8234
243 8812
243 8914
243 9017
243 9119
243 9122
243 9147
244 247
244 318
244 323
244 403
244 479
244 512
244 533
244 558
244 569
244 572
244 610
244 631
244 684
244 690
244 723
244 777
244 853
244 1075
244 1080
244 1090
244 1107
244 1118
244 1408
244 1435
244 1459
244 1472
244 1780
244 1798
244 1805
244 1818
244 1891
244 1894
244 2026
244 2041
244 2096
244 2150
244 2160
244 2367
244 2649
244 2738
244 2839
244 2883
244 3020
244 3212
244 3255
244 3717
244 3755
244 4036
244 4136
244 4299
244 4545
244 4932
244 5239
244 5329
244 5333
244 5579
244 5581
244 6023
244 6376
244 6885
244 7248
244 7331
244 7749
244 8549
244 8611
244 8691
244 8739
244 8996
244 9128
244 9192
244 9309
244 9365
244 9588
244 9732
244 9989
245 256
245 293
245 297
245 300
245 391
245 480
245 620
245 958
245 971
245 1240
245 1450
245 1498
245 1533
245 1592
245 1818
245 2277
245 2371
245 2511
245 3410
245 3660
245 3873
245 3976
245 4039
245 4213
245 4253
245 4976
245 5053
245 5533
245 6603
245 6894
245 6903
245 7065
245 7153
245 7302
245 7379
245 7644
245 7887
245 8010
245 8230
245 8352
245 8386
245 8392
245 8607
245 8874
245 9141
245 9294
245 9302
245 9334
245 9363
246 249
246 256
246 326
246 330
246 364
246 387
246 395
246 410
246 540
246 654
246 721
246 732
246 805
246 837
246 989
246 998
246 1164
246 1218
246 1247
246 1395
246 1444
246 1539
246 1630
246 1803
246 1809
246 1910
246 1934
246 1983
246 2270
246 3317
246 3363
246 3368
246 3411
246 3851
246 3912
246 3979
246 4250
246 4389
246 4854
246 4885
246 4995
246 5161
246 5679
246 6135
246 6764
246 7806
246 8446
246 8584
246 8588
246 8673
247 300
247 369
247 667
247 753
247 917
247 1255
247 1618
247 1829
247 1950
247 2248
247 2539
247 2649
247 2886
247 2898
247 3072
247 3177
247 4124
247 4269
247 4338
247 4675
247 4721
247 4882
247 5068
247 5183
247 5405
247 5890
247 5967
247 7271
247 7833
247 8003
247 8008
247 8220
247 8617
247 9495
248 380
248 560
248 645
248 704
248 811
248 934
248 988
248 1084
248 1187
248 2021
248 2048
248 2238
248 2284
248 2460
248 2712
248 3102
248 3110
248 3238
248 4197
248 4207
248 4220
248 4243
248 4598
248 4962
248 5346
248 5953
248 6877
248 6990
248 7213
248 7494
248 8451
248 8555
248 9038
248 9118
248 9196
248 9597
249 283
249 570
249 625
249 633
249 662
249 719
249 1051
249 1110
249 1138
249 1216
249 1322
249 1492
249 1819
249 1917
249 1960
249 2027
249 2413
249 2710
249 3002
249 3161
249 3191
249 3244
249 3436
249 3692
249 3851
249 3867
249 3880
249 3968
249 4105
249 4467
249 4472
249 4765
249 4813
249 5022
249 5849
249 6351
249 6808
249 6994
249 7009
249 7428
249 7608
249 7836
249 8455
249 9107
249 9153
249 9170
249 9352
249 9690
249 9917
250 263
250 321
250 347
250 418
250 441
250 443
250 467
250 475
250 482
250 564
250 585
250 664
250 707
250 780
250 937
250 943
250 1014
250 1025
250 1161
250 1183
250 1380
250 1456
250 1526
250 1536
250 1579
250 1792
250 1866
250 1887
250 1896
250 1955
250 2000
250 2005
250 2049
250 2053
250 2376
250 2390
250 2469
250 2501
250 2543
250 2554
250 2708
250 2722
250 2851
250 2933
250 3063
250 3250
250 3415
250 3551
250 3560
250 3744
250 3805
250 3815
250 3849
250 3859
250 3867
250 3930
250 4491
250 4590
250 4858
250 5121
250 5213
250 5749
250 5753
250 7129
250 7340
250 7343
250 7634
250 7779
250 7835
250 8081
250 8411
250 9291
250 9595
250 9704
251 311
251 319
251 455
251 479
251 496
251 525
251 785
251 988
251 1051
251 1084
251 1090
251 1161
251 1219
251 1239
251 1491
251 1516
251 1647
251 1650
251 1760
251 1790
251 2046
251 2228
251 2450
251 2632
251 2656
251 2817
251 2919
251 3279
251 3391
251 3417
251 4244
251 4262
251 4317
251 4510
251 4750
251 4961
251 5045
251 5327
251 5673
251 5698
251 6108
251 6888
251 7027
251 7066
251 7436
251 7505
251 7674
251 7924
251 7946
251 7978
251 8191
251 8719
251 8896
251 9009
251 9254
251 9765
251 9950
252 294
252 307
252 392
252 457
252 490
252 683
252 701
252 749
252 797
252 874
252 900
252 918
252 922
252 968
252 969
252 1007
252 1105
252 1154
252 1274
252 1325
252 1401
252 1482
252 1585
252 1648
252 1803
252 1812
252 1931
252 1941
252 2151
252 2292
252 2312
252 2404
252 2670
252 2745
252 3104
252 3169
252 3511
252 3588
252 3746
252 3846
252 3859
252 4328
252 4471
252 4492
252 4738
252 5072
252 5790
252 6060
252 6840
252 7689
252 7922
252 8034
252 8051
252 9937
253 281
253 442
253 898
253 1137
253 1174
253 1251
253 1751
253 1922
253 2036
253 2242
253 2476
253 3317
253 3346
253 3619
253 5080
253 5089
253 5852
253 5887
253 5935
253 5936
253 6005
253 6278
253 7408
253 8041
253 8226
253 8335
253 8785
253 9402
253 9666
253 9905
254 255
254 257
254 286
254 287
254 296
254 299
254 309
254 351
254 389
254 423
254 438
254 439
254 475
254 581
254 600
254 612
254 687
254 754
254 824
254 888
254 889
254 901
254 995
254 1011
254 1344
254 1346
254 2240
254 2811
254 2856
254 2903
254 2999
254 3001
254 3082
254 3087
254 3198
254 3437
254 3696
254 3933
254 4124
254 4605
254 4748
254 4849
254 4933
254 4948
254 5229
254 5428
254 5650
254 5996
254 6036
254 7380
254 7421
254 7497
254 7507
254 7991
254 8022
254 8440
254 8753
254 8975
254 9057
254 9145
255 342
255 418
255 441
255 513
255 553
255 655
255 670
255 705
255 804
255 840
255 873
255 1191
255 1234
255 1386
255 1389
255 1429
255 1439
255 1534
255 1594
255 1652
255 1810
255 1832
255 2025
255 2120
255 2305
255 2396
255 2456
255 2481
255 2540
255 2541
255 2632
255 2727
255 2959
255 3108
255 3111
255 3214
255 3224
255 3423
255 3739
255 3957
255 4090
255 4176
255 4265
255 4475
255 4495
255 4694
255 5384
255 5390
255 5695
255 5972
255 5973
255 6092
255 6115
255 6444
255 6483
255 6510
255 6539
255 6638
255 7012
255 7118
255 7698
255 8369
255 8455
255 8525
255 8762
255 9007
255 9178
255 9294
255 9357
255 9559
256 262
256 404
256 453
256 485
256 495
256 731
256 772
256 872
256 945
256 1219
256 1280
256 1453
256 1526
256 1612
256 1645
256 2095
256 2153
256 2216
256 2270
256 2339
256 2371
256 2414
256 2492
256 2581
256 2587
256 2611
256 2620
256 2759
256 2825
256 2846
256 2857
256 2868
256 3135
256 3202
256 3263
256 3420
256 3459
256 3537
256 3622
256 4083
256 4147
256 4222
256 4419
256 4635
256 4704
256 5789
256 5820
256 5937
256 6075
256 6476
256 6530
256 6610
256 7076
256 7168
256 7217
256 8155
256 8387
256 8688
256 9595
256 9967
256 9981
257 262
257 264
257 281
257 291
257 375
257 437
257 465
257 489
257 612
257 629
257 678
257 710
257 757
257 852
257 880
257 886
257 898
257 907
257 929
257 1106
257 1143
257 1171
257 1304
257 1477
257 1631
257 1788
257 1879
257 1997
257 2120
257 2156
257 2165
257 2198
257 2202
257 2569
257 2600
257 2626
257 2881
257 3002
257 3073
257 3099
257 3468
257 4232
257 4243
257 4404
257 4798
257 4880
257 5007
257 5054
257 5311
257 5325
257 5634
257 5731
257 5923
257 5961
257 6052
257 6286
257 6655
257 6698
257 6884
257 7337
257 7722
257 8169
257 8378
257 8455
257 8539
257 8634
257 8785
257 8997
257 9104
257 9156
257 9267
257 9367
257 9389
257 9660
258 342
258 343
258 414
258 568
258 597
258 635
258 1179
258 1443
258 1445
258 1553
258 1629
258 1689
258 2040
258 2119
258 2497
258 2519
258 2542
258 3059
258 3571
258 3655
258 3673
258 3952
258 4024
258 4485
258 4598
258 4698
258 4920
258 5791
258 6097
258 6923
258 8079
258 8935
258 9465
258 9748
259 321
259 338
259 468
259 498
259 530
259 610
259 618
259 620
259 627
259 794
259 854
259 919
259 998
259 1135
259 1201
259 1247
259 1468
259 1671
259 1753
259 1784
259 1911
259 1949
259 1997
259 2064
259 2277
259 2344
259 2455
259 2623
259 2627
259 2907
259 3239
259 3335
259 3341
259 3394
259 3657
259 4041
259 4090
259 4255
259 4334
259 4854
259 4982
259 5127
259 5203
259 5573
259 5728
259 5822
259 6094
259 6243
259 6248
259 6267
259 6606
259 6765
259 7089
259 7100
259 7120
259 7301
259 7419
259 7492
259 8066
259 8376
259 8446
259 8533
259 8631
259 8722
259 9056
259 9095
259 9895
260 298
260 352
260 393
260 449
260 1007
260 1200
260 1237
260 1319
260 1486
260 1671
260 2567
260 2656
260 3150
260 3286
260 3675
260 3766
260 3768
260 3915
260 4209
260 4477
260 4726
260 4736
260 4942
260 5752
260 5945
260 5961
260 7520
260 7642
260 8005
260 8358
260 8428
260 9247
260 9446
260 9775
261 307
261 311
261 384
261 396
261 442
261 518
261 590
261 762
261 903
261 907
261 1015
261 1127
261 1147
261 1211
261 1305
261 1390
261 1600
261 1691
261 1716
261 1786
261 1818
261 1940
261 1993
261 2050
261 2241
261 2243
261 2476
261 2956
261 3377
261 4278
261 4593
261 4614
261 4874
261 5029
261 5844
261 5959
261 6402
261 6605
261 6975
261 7068
261 7111
261 7862
261 8428
261 8640
261 9035
261 9944
262 271
262 290
262 310
262 384
262 408
262 419
262 644
262 677
262 684
262 820
262 899
262 906
262 931
262 959
262 1034
262 1054
262 1285
262 1517
262 1537
262 1549
262 1608
262 1750
262 1785
262 2059
262 2115
262 2312
262 2548
262 2628
262 2796
262 2852
262 3009
262 3164
262 3170
262 3239
262 3355
262 3444
262 3598
262 3701
262 3710
262 3932
262 3978
262 4163
262 4309
262 4365
262 4444
262 4750
262 4847
262 4887
262 5012
262 5062
262 5214
262 6124
262 6315
262 6522
262 6657
262 6712
262 6742
262 6769
262 6780
262 6847
262 6918
262 7100
262 7118
262 7124
262 7148
262 7459
262 7471
262 7817
262 7970
262 8407
262 8716
262 9609
262 9657
262 9712
262 9755
263 274
263 314
263 384
263 545
263 567
263 653
263 1054
263 1100
263 1197
263 1317
263 1646
263 1948
263 1963
263 2134
263 2371
263 2733
263 2787
263 2996
263 3057
263 3126
263 3364
263 3530
263 3654
263 3911
263 4264
263 4346
263 4966
263 5095
263 5407
263 5555
263 5920
263 6001
263 6312
263 6481
263 6624
263 6936
263 7165
263 7205
263 7545
263 7748
263 8167
263 8563
263 8615
263 8987
263 9102
263 9115
263 9405
263 9768
263 9769
264 429
264 431
264 508
264 682
264 872
264 1114
264 1128
264 1133
264 1311
264 1405
264 1556
264 1741
264 1751
264 1778
264 1793
264 1850
264 1945
264 1981
264 1984
264 1995
264 2294
264 2748
264 2805
264 2833
264 4335
264 5822
264 6070
264 6582
264 6976
264 7159
264 7289
264 8023
264 9256
264 9486
265 448
265 580
265 632
265 683
265 690
265 719
265 754
265 869
265 1391
265 1869
265 1871
265 2055
265 2085
265 2181
265 2207
265 2372
265 2476
265 2744
265 2903
265 2922
265 3011
265 3200
265 3339
265 3506
265 3533
265 3680
265 3686
265 3971
265 4110
265 4212
265 4463
265 4493
265 4498
265 4563
265 4763
265 4795
265 5389
265 5419
265 5512
265 5579
265 5655
265 5959
265 6367
265 6532
265 6790
265 6794
265 6916
265 7186
265 7773
265 7953
265 8628
265 9257
265 9769
266 445
266 503
266 559
266 589
266 737
266 818
266 947
266 1188
266 1279
266 1407
266 1417
266 1917
266 2077
266 2150
266 2313
266 2393
266 2455
266 3019
266 3085
266 3817
266 3866
266 3918
266 3943
266 4127
266 4302
266 4919
266 5606
266 5648
266 6154
266 6270
266 6925
266 7337
266 8623
266 9427
266 9436
267 306
267 604
267 677
267 851
267 959
267 1004
267 1196
267 1776
267 1989
267 2034
267 2181
267 2200
267 2237
267 2327
267 2347
267 2491
267 2543
267 2627
267 3565
267 3760
267 3772
267 3782
267 3843
267 4025
267 4229
267 4283
267 4296
267 4326
267 4412
267 4767
267 5719
267 5825
267 6629
267 6640
267 6962
267 7095
267 7587
267 8033
267 8071
267 8145
267 8557
268 467
268 526
268 541
268 548
268 553
268 572
268 599
268 733
268 885
268 1026
268 1051
268 1126
268 1284
268 1340
268 1345
268 1577
268 1616
268 1708
268 1827
268 1965
268 2009
268 2034
268 2045
268 2137
268 2271
268 2328
268 2496
268 2556
268 2608
268 2691
268 2820
268 2954
268 3185
268 3281
268 3367
268 3964
268 4491
268 4723
268 4881
268 5084
268 5265
268 5845
268 5953
268 6254
268 6792
268 6898
268 7156
268 7343
268 7368
268 7646
268 8444
268 8532
268 8764
268 8983
268 9159
268 9883
268 5266
269 282
269 284
269 326
269 350
269 559
269 690
269 819
269 927
269 965
269 1235
269 1245
269 1450
269 1745
269 1857
269 2150
269 2208
269 2328
269 2483
269 2653
269 2878
269 3062
269 3125
269 3671
269 3956
269 4233
269 4253
269 5690
269 6101
269 6327
269 6452
269 7122
269 7517
269 7607
269 7641
269 7665
269 7698
269 8668
269 8806
269 8966
269 9647
269 9704
269 9806
269 9997
270 276
270 332
270 338
270 406
270 509
270 628
270 680
270 686
270 709
270 843
270 990
270 1061
270 1086
270 1236
270 1323
270 1333
270 1342
270 1425
270 1560
270 1574
270 1663
270 1755
270 2063
270 2176
270 2554
270 3418
270 4044
270 4394
270 5001
270 5889
270 5935
270 6030
270 6061
270 6552
270 7035
270 7302
270 7559
270 7797
270 8460
270 9021
270 9074
270 9157
270 9237
270 9328
270 9381
270 9540
270 9683
271 309
271 400
271 404
271 406
271 425
271 439
271 551
271 580
271 611
271 648
271 780
271 917
271 1356
271 1759
271 2323
271 2369
271 2378
271 2524
271 2554
271 2933
271 2962
271 3082
271 3182
271 3200
271 3259
271 3509
271 3648
271 4033
271 4266
271 4283
271 4379
271 5013
271 5146
271 6023
271 6216
271 6336
271 7142
271 7326
271 7447
271 7950
271 8100
271 8710
271 9245
271 9259
271 9569
271 9827
271 9900
272 338
272 430
272 460
272 465
272 488
272 499
272 574
272 590
272 596
272 617
272 684
272 697
272 803
272 873
272 882
272 883
272 978
272 988
272 1061
272 1077
272 1131
272 1134
272 1170
272 1186
272 1255
272 1276
272 1310
272 1327
272 1386
272 1425
272 1516
272 1625
272 1654
272 1747
272 1748
272 1751
272 1968
272 2322
272 2590
272 2593
272 2635
272 2673
272 2781
272 2807
272 3107
272 3143
272 3214
272 3269
272 3565
272 3624
272 3903
272 3925
272 3958
272 4059
272 4261
272 4564
272 4882
272 4908
272 5287
272 5363
272 5435
272 5446
272 5780
272 5819
272 5829
272 6068
272 6288
272 6319
272 6555
272 6925
272 7361
272 7506
272 7573
272 7629
272 7802
272 8319
272 8541
272 9206
272 9302
272 9447
272 9677
273 448
273 474
273 592
273 720
273 928
273 986
273 1084
273 1198
273 1244
273 1529
273 1762
273 2447
273 2623
273 2657
273 3016
273 4220
273 4701
273 5403
273 5464
273 5499
273 5860
273 6646
273 7248
273 7507
273 8147
274 299
274 344
274 380
274 580
274 602
274 616
274 648
274 678
274 742
274 1202
274 1222
274 1248
274 1332
274 1335
274 1383
274 1499
274 1769
274 2088
274 2189
274 2251
274 2437
274 2439
274 3705
274 3779
274 3854
274 3900
274 3936
274 4299
274 4388
274 4604
274 4652
274 5107
274 5127
274 5148
274 5165
274 5690
274 5953
274 6589
274 7065
274 7220
274 7592
274 7740
274 7916
274 8138
274 8493
274 8759
274 9241
274 9762
275 333
275 400
275 582
275 601
275 607
275 764
275 992
275 1338
275 1373
275 1457
275 1753
275 1782
275 1884
275 1970
275 2051
275 2098
275 2314
275 2357
275 2625
275 3535
275 4012
275 4204
275 4209
275 4445
275 4632
275 4749
275 5260
275 5686
275 5873
275 6418
275 6525
275 6644
275 6672
275 6861
275 7499
275 7744
275 7955
275 8012
275 8356
275 8426
275 8944
275 9348
275 9358
275 9467
275 9999
276 291
276 410
276 419
276 549
276 696
276 701
276 780
276 837
276 847
276 906
276 915
276 946
276 1149
276 1162
276 1192
276 1202
276 1353
276 1508
276 1544
276 2515
276 2807
276 2909
276 2916
276 3332
276 3440
276 3950
276 3992
276 4137
276 4237
276 4540
276 4977
276 5027
276 5544
276 6995
276 7162
276 7245
276 8487
276 8794
276 8896
276 9184
276 9712
276 9967
276 9979
277 319
277 334
277 414
277 611
277 655
277 837
277 852
277 899
277 1106
277 1374
277 1496
277 1527
277 1805
277 1900
277 1910
277 2171
277 2255
277 2320
277 2743
277 3014
277 3100
277 3228
277 3612
277 3890
277 3896
277 3977
277 4073
277 4136
277 4205
277 4212
277 4267
277 4363
277 4434
277 4543
277 4711
277 5317
277 7175
277 7403
277 7774
277 7928
277 8013
277 8716
277 9209
277 9259
278 324
278 360
278 501
278 860
278 1049
278 1065
278 1108
278 1513
278 1849
278 1928
278 2105
278 2544
278 3315
278 3382
278 4155
278 4314
278 5380
278 5548
278 6016
278 6514
278 6704
278 6843
278 7611
278 8121
278 8445
278 9640
279 296
279 343
279 353
279 632
279 662
279 1216
279 1527
279 1593
279 1695
279 1711
279 1888
279 1890
279 2174
279 2452
279 2546
279 2605
279 2669
279 2708
279 2816
279 2855
279 2960
279 3090
279 3097
279 3355
279 3371
279 3477
279 3723
279 4614
279 4834
279 5068
279 5591
279 5722
279 5839
279 6512
279 6973
279 7150
279 7778
279 7781
279 7842
279 8221
279 8489
279 9004
279 9151
280 283
280 416
280 456
280 484
280 515
280 577
280 596
280 668
280 671
280 693
280 694
280 972
280 999
280 1118
280 1470
280 1515
280 1576
280 1710
280 1860
280 1970
280 2066
280 2108
280 2257
280 2269
280 2721
280 2734
280 3084
280 3266
280 3496
280 3627
280 3774
280 4030
280 4282
280 4335
280 4446
280 4524
280 5055
280 5180
280 5196
280 5284
280 5356
280 5376
280 5560
280 5562
280 5915
280 6043
280 6460
280 6629
280 7026
280 7038
280 7085
280 7261
280 7667
280 7943
280 8204
280 8397
280 8724
280 8772
280 8810
280 9054
280 9264
280 9491
280 9531
281 428
281 469
281 487
281 492
281 503
281 519
281 610
281 621
281 627
281 675
281 721
281 750
281 1055
281 1060
281 1077
281 1461
281 1670
281 1814
281 1872
281 1888
281 1973
281 2066
281 2079
281 2170
281 2178
281 2546
281 2893
281 3222
281 3249
281 3253
281 3341
281 3377
281 3551
281 3642
281 3872
281 4466
281 4503
281 4556
281 4586
281 4921
281 5024
281 5132
281 5279
281 5809
281 5862
281 6265
281 6294
281 6334
281 6740
281 6764
281 7019
281 7157
281 7529
281 8320
281 8694
281 8872
281 9030
281 9173
281 9302
281 9435
282 352
282 375
282 402
282 672
282 738
282 743
282 797
282 825
282 971
282 1006
282 1095
282 1433
282 1489
282 1513
282 1568
282 1687
282 1750
282 1852
282 1913
282 2010
282 2474
282 2556
282 2808
282 2842
282 2872
282 2994
282 3171
282 3184
282 3818
282 4085
282 4124
282 4142
282 4279
282 4573
282 4699
282 4748
282 5159
282 5263
282 5643
282 6016
282 6063
282 6420
282 6766
282 6805
282 6828
282 7856
282 8496
282 8677
282 9206
282 9222
282 9353
282 9479
282 9965
283 609
283 777
283 792
283 839
283 930
283 1036
283 1149
283 1354
283 1400
283 1634
283 1722
283 1945
283 1966
283 2151
283 2222
283 2328
283 2619
283 2680
283 3458
283 3529
283 3563
283 3586
283 3882
283 4228
283 4450
283 4499
283 4805
283 4868
283 4887
283 4923
283 5753
283 6414
283 6501
283 6741
283 7039
283 7188
283 7203
283 7252
283 8401
283 8658
283 8745
283 8754
283 9083
283 9167
283 9188
283 9351
283 9491
283 9969
284 309
284 328
284 442
284 652
284 673
284 756
284 766
284 1051
284 1065
284 1117
284 1993
284 2669
284 2721
284 2920
284 3068
284 3258
284 3265
284 3375
284 3804
284 4396
284 4827
284 5195
284 5810
284 6151
284 6252
284 7019
284 7428
284 7797
284 7921
284 8290
284 8645
284 8653
284 9019
284 9886
285 295
285 310
285 361
285 523
285 796
285 877
285 901
285 958
285 964
285 1032
285 1063
285 1091
285 1124
285 1488
285 2037
285 2053
285 2316
285 2979
285 3311
285 3316
285 3622
285 4030
285 4318
285 4335
285 4865
285 5024
285 5298
285 5350
285 5440
285 5953
285 5986
285 6160
285 6511
285 7073
285 7304
285 7511
285 8738
285 8774
285 8885
285 9221
285 9593
286 325
286 372
286 429
286 450
286 472
286 672
286 758
286 943
286 1204
286 1412
286 1581
286 1655
286 2127
286 2131
286 2790
286 3109
286 3283
286 4504
286 6427
286 7307
286 7520
286 7834
286 8528
286 9526
286 9794
287 675
287 757
287 1170
287 1750
287 1761
287 1959
287 2017
287 2987
287 3277
287 3828
287 4020
287 6028
287 6211
287 6394
287 6893
287 7274
287 7632
287 8263
287 8420
287 8541
288 335
288 351
288 508
288 538
288 585
288 642
288 680
288 752
288 889
288 1006
288 1266
288 1287
288 1554
288 1743
288 1972
288 2156
288 2224
288 2329
288 2346
288 2584
288 2792
288 3220
288 3242
288 3670
288 3860
288 3881
288 4040
288 4179
288 4241
288 5231
288 5576
288 5596
288 6095
288 6122
288 6782
288 6859
288 7336
288 7789
288 7993
288 9796
289 330
289 346
289 383
289 470
289 630
289 671
289 807
289 1064
289 1070
289 1113
289 1289
289 1322
289 1458
289 1559
289 1568
289 1587
289 1694
289 1727
289 1823
289 1887
289 2122
289 2226
289 2500
289 2723
289 2953
289 3030
289 3578
289 3642
289 3654
289 4068
289 4229
289 4580
289 4708
289 4728
289 5448
289 5542
289 5610
289 5630
289 5949
289 6032
289 6140
289 6690
289 6791
289 6836
289 6868
289 7071
289 7122
289 7449
289 7476
289 7525
289 7570
289 7578
289 7660
289 7661
289 7889
289 8018
289 8325
289 8401
289 8750
289 8881
289 9040
289 9162
289 9163
289 9238
289 9505
289 9699
289 9910
290 444
290 450
290 460
290 475
290 497
290 520
290 654
290 686
290 727
290 805
290 812
290 932
290 998
290 1018
290 1019
290 1040
290 1263
290 1592
290 1738
290 1792
290 2091
290 2287
290 2577
290 2605
290 2616
290 2794
290 2814
290 2850
290 3740
290 3808
290 3858
290 5009
290 5118
290 5364
290 5386
290 5673
290 5706
290 6206
290 6268
290 6781
290 6892
290 7823
290 7953
290 8038
290 8541
290 9184
290 9384
290 9965
290 6820
291 300
291 422
291 426
291 498
291 556
291 569
291 695
291 810
291 819
291 891
291 941
291 963
291 1020
291 1026
291 1218
291 1451
291 1465
291 1516
291 1598
291 1606
291 1695
291 2000
291 2058
291 2069
291 2230
291 2433
291 2495
291 2562
291 2707
291 2903
291 3088
291 3186
291 3253
291 3421
291 3435
291 3632
291 3645
291 3758
291 3999
291 4015
291 4069
291 4287
291 4410
291 5004
291 5008
291 5132
291 5162
291 5303
291 5344
291 5834
291 6055
291 6141
291 6288
291 6807
291 7126
291 7172
291 7279
291 7993
291 8284
291 8319
291 8509
291 8649
291 8669
291 8684
291 8730
291 8809
291 9018
291 9591
292 301
292 342
292 476
292 513
292 518
292 536
292 607
292 608
292 712
292 714
292 729
292 730
292 804
292 942
292 1043
292 1082
292 1093
292 1116
292 1146
292 1492
292 1606
292 2527
292 3015
292 3044
292 3162
292 3249
292 3360
292 3623
292 3652
292 4006
292 4020
292 4233
292 4313
292 4554
292 4658
292 5078
292 5367
292 5779
292 6796
292 7033
292 7211
292 7436
292 7523
292 8090
292 8420
292 8805
292 8825
292 8909
292 9075
292 9109
292 9325
292 9830
293 295
293 407
293 724
293 925
293 1225
293 1272
293 1307
293 1852
293 2229
293 2253
293 2646
293 2741
293 2803
293 3087
293 3270
293 3323
293 3919
293 4234
293 4430
293 4431
293 5584
293 5927
293 6505
293 7363
293 7452
293 7852
293 8014
293 8552
293 8946
293 9798
294 327
294 335
294 422
294 537
294 562
294 586
294 588
294 603
294 664
294 757
294 772
294 794
294 839
294 1048
294 1078
294 1223
294 1234
294 1243
294 1346
294 1441
294 1453
294 1484
294 1489
294 1557
294 1629
294 1661
294 1814
294 1952
294 1979
294 2183
294 2252
294 2349
294 2450
294 2578
294 2630
294 2661
294 2791
294 2874
294 3053
294 3071
294 3326
294 3343
294 3440
294 3698
294 3699
294 3715
294 4129
294 4245
294 4356
294 4493
294 4683
294 4804
294 4904
294 5330
294 5365
294 5654
294 5829
294 5910
294 6052
294 6262
294 6305
294 6438
294 6439
294 6484
294 6883
294 6980
294 7223
294 7254
294 7332
294 7644
294 7901
294 7926
294 8099
294 8213
294 8575
294 8698
294 8716
294 8930
294 9111
294 9543
294 9800
295 328
295 393
295 415
295 436
295 658
295 695
295 996
295 1057
295 1116
295 1328
295 1380
295 1566
295 1822
295 1828
295 2030
295 2072
295 2223
295 2641
295 2656
295 2785
295 2819
295 3361
295 3618
295 3711
295 3923
295 4469
295 4492
295 4665
295 4700
295 4732
295 5090
295 5301
295 5370
295 5561
295 6340
295 6703
295 6900
295 6966
295 6999
295 7234
295 8311
295 8441
295 8569
295 8580
295 9666
295 9940
296 393
296 434
296 686
296 833
296 878
296 942
296 1025
296 1297
296 1735
296 1807
296 1890
296 1903
296 2060
296 2332
296 3033
296 4211
296 4384
296 4769
296 5902
296 5956
296 5986
296 6219
296 6680
296 6980
296 7530
296 8205
296 8432
296 8461
297 403
297 556
297 694
297 738
297 829
297 974
297 1053
297 1111
297 1326
297 1418
297 1472
297 1933
297 1934
297 2006
297 2067
297 2543
297 3254
297 3266
297 3462
297 3490
297 3517
297 4034
297 4375
297 4538
297 5506
297 6661
297 6866
297 6969
297 6990
297 7144
297 8720
297 8891
297 9053
298 307
298 375
298 398
298 399
298 413
298 428
298 477
298 496
298 557
298 574
298 601
298 747
298 803
298 1161
298 1214
298 1383
298 1394
298 1428
298 1688
298 2256
298 2344
298 2404
298 2621
298 2651
298 2700
298 3363
298 3482
298 3613
298 4285
298 5103
298 5289
298 5305
298 5364
298 5614
298 5656
298 5944
298 6106
298 6295
298 7053
298 7391
298 7828
298 8020
298 8053
298 8502
298 8559
298 8951
298 9379
298 9428
298 9557
298 9778
298 9868
298 9987
299 353
299 401
299 454
299 543
299 665
299 675
299 733
299 860
299 926
299 1132
299 1158
299 1225
299 1246
299 1283
299 1406
299 1486
299 1520
299 1573
299 1607
299 1801
299 1951
299 2004
299 2059
299 2159
299 2188
299 2217
299 2289
299 2320
299 2595
299 2666
299 2679
299 2735
299 2950
299 3172
299 3183
299 3212
299 3401
299 3429
299 3595
299 3632
299 4327
299 4748
299 4853
299 4893
299 4910
299 5027
299 5078
299 5185
299 5638
299 5670
299 5788
299 6149
299 6247
299 6282
299 6378
299 6518
299 6639
299 7130
299 7982
299 8093
299 8118
299 8161
299 8167
299 8298
299 8361
299 8388
299 8518
299 8598
299 8600
299 9186
299 9904
299 9998
300 316
300 470
300 557
300 1289
300 1600
300 1675
300 1862
300 1954
300 1975
300 2169
300 2234
300 2304
300 2328
300 2771
300 2933
300 2967
300 2989
300 3091
300 3381
300 3399
300 3593
300 4381
300 5166
300 5342
300 5550
300 5609
300 5637
300 6169
300 6401
300 6530
300 7040
300 7319
300 7353
300 7802
300 8205
300 8214
300 8510
300 8524
300 8695
300 9034
300 9132
300 9223
300 9468
300 9672
300 9985
301 348
301 356
301 475
301 544
301 554
301 905
301 939
301 1015
301 1033
301 1172
301 1423
301 1478
301 1498
301 1523
301 1628
301 1701
301 1949
301 2149
301 2247
301 2386
301 2810
301 3322
301 3711
301 4204
301 4323
301 4728
301 5048
301 5378
301 6202
301 6387
301 8329
301 8540
301 8880
301 8990
301 9072
302 459
302 500
302 825
302 996
302 1071
302 1149
302 1244
302 1369
302 1376
302 1537
302 1560
302 1611
302 1648
302 1934
302 1968
302 2439
302 2877
302 3403
302 3516
302 4147
302 4364
302 5132
302 5375
302 6356
302 7088
302 7210
302 7743
302 8344
302 8546
302 8642
303 397
303 441
303 462
303 479
303 497
303 504
303 509
303 528
303 658
303 666
303 761
303 782
303 783
303 793
303 823
303 826
303 835
303 845
303 852
303 895
303 897
303 1011
303 1025
303 1043
303 1137
303 1203
303 1368
303 1424
303 1463
303 1484
303 1560
303 1628
303 1660
303 1723
303 1886
303 1894
303 1909
303 2013
303 2048
303 2312
303 2359
303 2415
303 2422
303 2477
303 2491
303 2517
303 2610
303 2647
303 2879
303 3346
303 3404
303 3441
303 3458
303 3648
303 3663
303 4007
303 4052
303 4191
303 4315
303 4331
303 4340
303 4518
303 4836
303 4843
303 4846
303 4914
303 5035
303 5117
303 5145
303 5159
303 5896
303 6104
303 6224
303 6437
303 6752
303 7997
303 8026
303 8912
303 9061
303 9463
303 9544
304 535
304 603
304 643
304 1099
304 1244
304 1254
304 1379
304 1398
304 1525
304 1739
304 1856
304 1915
304 2129
304 2252
304 2530
304 2624
304 2712
304 2796
304 2865
304 3036
304 3372
304 3828
304 4016
304 4157
304 4328
304 4672
304 4695
304 4921
304 5317
304 5732
304 5913
304 5948
304 6058
304 6115
304 6703
304 6735
304 7029
304 7521
304 7711
304 8036
304 8529
304 8897
304 9248
304 9903
305 339
305 415
305 487
305 510
305 555
305 596
305 829
305 870
305 891
305 901
305 902
305 957
305 1059
305 1065
305 1078
305 1153
305 1161
305 1241
305 1328
305 1331
305 1358
305 1446
305 1730
305 1923
305 1939
305 2030
305 2081
305 2091
305 2096
305 2155
305 2179
305 2229
305 2239
305 2271
305 2383
305 2614
305 2910
305 3028
305 3048
305 3234
305 3288
305 3339
305 3497
305 3546
305 3833
305 3847
305 3869
305 3979
305 4060
305 4392
305 4438
305 4825
305 5292
305 5795
305 5931
305 5978
305 6491
305 6525
305 6695
305 6913
305 6977
305 7283
305 7658
305 7704
305 7820
305 8666
305 8732
305 8869
305 8978
305 9224
305 9352
305 9459
305 9778
305 9837
306 382
306 514
306 526
306 1096
306 1137
306 1548
306 1689
306 1958
306 2410
306 2611
306 2837
306 2920
306 2949
306 2992
306 3707
306 3842
306 4719
306 4949
306 5148
306 5226
306 5529
306 5648
306 5803
306 6371
306 6615
306 6995
306 7638
306 7929
306 7937
306 8120
306 8389
306 8508
306 9179
306 9725
307 367
307 469
307 560
307 570
307 693
307 1141
307 1176
307 1537
307 1643
307 1648
307 1653
307 2291
307 2295
307 2425
307 2570
307 2611
307 3227
307 3433
307 3684
307 4274
307 5007
307 5121
307 5122
307 5338
307 5680
307 5768
307 5990
307 6092
307 6183
307 6277
307 6353
307 6372
307 7216
307 8045
307 8418
307 8906
307 9143
307 9475
307 9972
307 9997
308 351
308 403
308 406
308 416
308 502
308 905
308 913
308 1184
308 1513
308 1846
308 1939
308 2112
308 2196
308 2668
308 2927
308 3192
308 3313
308 3466
308 3893
308 4160
308 4226
308 4371
308 4655
308 4708
308 5009
308 5942
308 7316
308 9889
308 9898
309 400
309 412
309 507
309 527
309 542
309 550
309 554
309 568
309 950
309 1116
309 1145
309 1618
309 1887
309 1992
309 2156
309 2250
309 2516
309 2584
309 2868
309 3619
309 3677
309 4036
309 4058
309 4076
309 4132
309 4329
309 4433
309 5159
309 5278
309 5312
309 6166
309 6177
309 6180
309 6867
309 7156
309 7216
309 8098
309 8413
309 8942
309 9579
309 9857
310 402
310 589
310 606
310 651
310 715
310 824
310 1026
310 1047
310 1107
310 1189
310 1404
310 1447
310 1563
310 1793
310 3118
310 3270
310 3288
310 3551
310 3566
310 3928
310 4122
310 4420
310 4460
310 4486
310 4567
310 5014
310 5476
310 5631
310 6116
310 6578
310 7751
310 8041
310 8389
310 8841
310 8859
310 9571
310 9787
310 9829
311 391
311 432
311 661
311 691
311 716
311 727
311 806
311 953
311 993
311 1152
311 1215
311 1320
311 1324
311 1381
311 1634
311 1660
311 1719
311 1814
311 1841
311 1913
311 2031
311 2042
311 2085
311 2095
311 2101
311 2152
311 2228
311 2677
311 2888
311 2976
311 3093
311 3132
311 3156
311 3204
311 3241
311 3351
311 3373
311 3437
311 3999
311 4067
311 4397
311 4811
311 5253
311 5572
311 5900
311 6226
311 6271
311 6375
311 6442
311 6451
311 6507
311 6520
311 6888
311 7006
311 7498
311 7845
311 8059
311 8066
311 8253
311 8665
311 9019
311 9209
311 9341
311 9582
311 9982
312 363
312 420
312 510
312 726
312 818
312 846
312 1085
312 1097
312 1143
312 1322
312 1452
312 1477
312 1724
312 1856
312 1861
312 2339
312 2399
312 2546
312 2625
312 2631
312 3391
312 3408
312 3584
312 3637
312 3830
312 3951
312 4175
312 4428
312 5104
312 5150
312 5157
312 5235
312 5247
312 5312
312 5893
312 6171
312 6430
312 6673
312 6809
312 6926
312 7007
312 7756
312 7910
312 7931
312 8500
312 8623
312 8777
312 9236
312 9782
312 9846
312 2605
313 352
313 420
313 532
313 729
313 980
313 1340
313 2522
313 2925
313 3119
313 3169
313 3749
313 4555
313 4997
313 5227
313 5280
313 5359
313 6718
313 7002
313 7564
313 8838
313 9489
313 9723
313 9930
314 550
314 601
314 814
314 833
314 987
314 1255
314 1923
314 1926
314 1970
314 2046
314 2109
314 2127
314 2223
314 2864
314 3416
314 3482
314 4062
314 5019
314 5826
314 5892
314 6196
314 7762
314 7950
314 8117
314 8277
314 8286
314 9360
314 9471
314 9718
315 447
315 496
315 553
315 757
315 783
315 870
315 997
315 1018
315 1083
315 1239
315 1689
315 1942
315 2026
315 3254
315 3514
315 3967
315 4841
315 5007
315 5299
315 5315
315 5566
315 5629
315 5683
315 5758
315 6125
315 6370
315 6422
315 6653
315 7236
315 7289
315 7298
315 7500
315 7713
315 8016
315 8083
315 8298
315 8312
315 8546
315 8548
315 8753
315 8824
315 8856
315 8881
315 9656
315 9924
316 438
316 678
316 914
316 1288
316 1421
316 1508
316 1966
316 2106
316 2193
316 2309
316 2791
316 3077
316 4789
316 6951
316 8288
316 8290
317 320
317 740
317 781
317 1013
317 1072
317 1162
317 1193
317 1274
317 1276
317 1334
317 1525
317 1633
317 2199
317 2267
317 2654
317 2814
317 2958
317 2975
317 3019
317 3195
317 4125
317 4136
317 4490
317 5008
317 5308
317 5373
317 5406
317 5520
317 5649
317 5717
317 5807
317 5882
317 6409
317 6725
317 6780
317 7482
317 8560
317 8671
317 8992
317 9066
317 9379
317 9567
317 9684
317 9866
317 9995
318 512
318 539
318 623
318 841
318 905
318 941
318 1017
318 1430
318 1472
318 1701
318 2299
318 2486
318 2581
318 3305
318 3353
318 3409
318 3462
318 3570
318 3597
318 4057
318 4199
318 4253
318 4291
318 4358
318 4408
318 5177
318 5265
318 5807
318 5845
318 5957
318 6026
318 6096
318 6127
318 6183
318 6358
318 6479
318 6480
318 6548
318 6677
318 7144
318 7173
318 8847
318 8935
319 520
319 571
319 898
319 999
319 1628
319 1669
319 1696
319 1759
319 1991
319 2038
319 2183
319 2256
319 2297
319 2412
319 2839
319 3402
319 3565
319 4186
319 4611
319 4785
319 4989
319 5157
319 5322
319 5657
319 6111
319 6160
319 6287
319 6921
319 7038
319 8381
319 9409
320 366
320 410
320 548
320 590
320 998
320 1037
320 1055
320 1066
320 1130
320 1353
320 1663
320 1764
320 1833
320 2065
320 2566
320 2964
320 3114
320 3129
320 3507
320 3658
320 3701
320 3832
320 3858
320 4327
320 4497
320 4589
320 4685
320 4712
320 4994
320 5025
320 5112
320 5152
320 5325
320 5509
320 5751
320 6194
320 7231
320 8094
320 8993
320 9679
320 9828
320 9896
321 325
321 453
321 625
321 642
321 652
321 978
321 1093
321 1120
321 1150
321 1155
321 1296
321 1341
321 1419
321 1698
321 1924
321 1964
321 1981
321 2150
321 2376
321 2537
321 2625
321 2775
321 3751
321 3793
321 3839
321 4014
321 4034
321 4050
321 4066
321 4148
321 4780
321 4999
321 5173
321 5394
321 6356
321 6567
321 7210
321 7856
321 8545
321 9117
321 9200
321 9437
322 350
322 391
322 444
322 481
322 493
322 507
322 578
322 609
322 709
322 733
322 752
322 766
322 917
322 918
322 1043
322 1408
322 1480
322 1556
322 1641
322 1704
322 1779
322 2164
322 2170
322 2176
322 2255
322 2259
322 2614
322 2636
322 2648
322 2732
322 2750
322 2799
322 2911
322 3095
322 3142
322 3174
322 3314
322 3521
322 3555
322 3742
322 3778
322 4116
322 4839
322 4953
322 4969
322 4980
322 5623
322 5728
322 5897
322 5916
322 6137
322 6138
322 6320
322 6394
322 6469
322 6668
322 7216
322 7331
322 7340
322 7518
322 8205
322 8406
322 9080
322 9579
322 9781
322 9909
323 427
323 709
323 728
323 743
323 800
323 847
323 965
323 972
323 1196
323 1545
323 1838
323 1847
323 1855
323 1992
323 2091
323 2541
323 2597
323 2742
323 3162
323 3586
323 3736
323 3809
323 3950
323 4682
323 4903
323 5051
323 6317
323 6381
323 6458
323 7022
323 7200
323 7208
323 7817
323 7853
323 7913
323 8350
323 8667
323 9151
323 9200
323 9646
323 9676
323 9804
323 9887
324 326
324 532
324 651
324 726
324 750
324 754
324 872
324 923
324 1035
324 1138
324 1226
324 1668
324 1892
324 1947
324 2003
324 2344
324 2375
324 2399
324 2631
324 3329
324 3418
324 3775
324 4170
324 4690
324 4891
324 5109
324 5410
324 5563
324 5891
324 7040
324 7399
324 7691
324 9479
324 9506
324 9636
324 9811
325 346
325 355
325 373
325 403
325 460
325 520
325 598
325 937
325 1107
325 1215
325 1233
325 1246
325 1369
325 1466
325 1490
325 1502
325 1540
325 1554
325 1662
325 2253
325 2390
325 2469
325 2470
325 2513
325 2600
325 2619
325 2752
325 3038
325 3632
325 3663
325 3726
325 3822
325 4143
325 4220
325 4488
325 4518
325 5081
325 5101
325 5138
325 5247
325 5506
325 5614
325 5807
325 5840
325 5883
325 6112
325 6498
325 6509
325 6756
325 6963
325 7822
325 8013
325 8177
325 8561
325 8594
325 8835
325 9466
325 9694
325 9713
326 337
326 357
326 362
326 434
326 436
326 536
326 625
326 1192
326 1336
326 1576
326 1645
326 1695
326 1768
326 1843
326 1851
326 2075
326 2285
326 2862
326 4190
326 4526
326 4753
326 5092
326 5161
326 7880
326 8213
326 8332
326 8799
326 9205
326 9377
326 9580
326 9666
327 364
327 425
327 493
327 510
327 670
327 681
327 734
327 838
327 953
327 1239
327 1281
327 1296
327 1313
327 1555
327 1587
327 1706
327 1785
327 1851
327 2092
327 2176
327 2267
327 2368
327 2432
327 2639
327 2662
327 2899
327 2954
327 3041
327 3115
327 3404
327 3712
327 4178
327 4227
327 4476
327 4576
327 4751
327 4814
327 5072
327 5201
327 5539
327 6216
327 6264
327 6502
327 6869
327 7116
327 7410
327 7438
327 7649
327 8744
327 8946
328 389
328 480
328 531
328 579
328 701
328 978
328 994
328 1029
328 1079
328 1148
328 1410
328 1794
328 1825
328 1882
328 2080
328 2336
328 2422
328 2539
328 2542
328 2782
328 2963
328 3134
328 3245
328 3710
328 3789
328 4234
328 4399
328 4463
328 4628
328 5676
328 6108
328 6473
328 6631
328 7010
328 7560
328 7976
328 8752
328 9030
328 9067
328 9272
329 355
329 378
329 589
329 650
329 731
329 748
329 754
329 829
329 1074
329 1088
329 1220
329 1320
329 1392
329 1409
329 1413
329 1524
329 1624
329 1888
329 1911
329 1930
329 1933
329 1956
329 2565
329 3151
329 3313
329 3472
329 3539
329 3554
329 3631
329 3685
329 3753
329 4374
329 4487
329 4638
329 4767
329 5087
329 5099
329 5142
329 5483
329 5681
329 6621
329 6903
329 7638
329 8690
329 8814
329 8838
329 8961
329 9213
329 9524
329 9574
329 9984
329 9999
330 354
330 748
330 1054
330 1090
330 1145
330 1240
330 1337
330 1421
330 1480
330 1992
330 2922
330 2960
330 2997
330 3060
330 3073
330 3494
330 3497
330 3634
330 3818
330 3987
330 4039
330 4076
330 4239
330 4450
330 5578
330 6020
330 6994
330 7726
330 8077
330 8456
330 8707
330 8841
330 9486
331 471
331 507
331 612
331 630
331 745
331 844
331 1001
331 1434
331 1604
331 1671
331 1960
331 1970
331 2022
331 2216
331 2312
331 2394
331 2637
331 2841
331 3428
331 3662
331 3675
331 4575
331 4578
331 4763
331 4951
331 4964
331 4984
331 5239
331 5343
331 5444
331 5534
331 5984
331 6188
331 6336
331 6432
331 6584
331 6598
331 6744
331 6916
331 7050
331 7453
331 7535
331 7652
331 7700
331 7824
331 8111
331 8349
331 8425
331 8696
331 8897
331 9279
331 9402
331 9715
332 497
332 547
332 642
332 708
332 979
332 1019
332 1049
332 1259
332 1594
332 1728
332 2004
332 2101
332 2188
332 2547
332 2677
332 2703
332 2704
332 2910
332 2968
332 3206
332 3257
332 3643
332 3864
332 4472
332 4571
332 4682
332 4963
332 5031
332 5184
332 5689
332 5722
332 5737
332 6200
332 6349
332 6628
332 7060
332 7192
332 7418
332 7477
332 7543
332 9017
332 9021
332 9662
332 9717
332 9856
332 9910
333 495
333 535
333 560
333 615
333 826
333 1049
333 1127
333 1224
333 1230
333 1534
333 1668
333 1684
333 1710
333 1771
333 1943
333 2059
333 2152
333 2183
333 2432
333 2588
333 2763
333 2878
333 3205
333 3321
333 3347
333 3617
333 3762
333 3927
333 4142
333 4169
333 4592
333 5159
333 5313
333 5324
333 5467
333 5542
333 5854
333 6007
333 6351
333 6953
333 7512
333 8264
333 8815
333 9183
333 9389
333 9586
333 9669
333 9740
334 888
334 1259
334 1398
334 1433
334 1828
334 2446
334 2477
334 2601
334 2620
334 2799
334 3148
334 3161
334 3896
334 4039
334 4276
334 4523
334 4577
334 4772
334 4795
334 7002
334 7508
334 7537
334 7990
334 8256
334 8671
335 387
335 404
335 420
335 425
335 475
335 528
335 546
335 624
335 627
335 647
335 829
335 992
335 1021
335 1321
335 1346
335 1492
335 1877
335 1909
335 1964
335 2174
335 2422
335 2899
335 3029
335 3112
335 3113
335 3278
335 3368
335 3418
335 3608
335 3681
335 3707
335 3968
335 4102
335 4217
335 4363
335 4429
335 4648
335 4860
335 5292
335 5421
335 5608
335 5790
335 6078
335 6139
335 6667
335 6796
335 7559
335 7734
335 7911
335 7940
335 8031
335 8486
335 8570
335 8601
335 9456
335 9646
335 9793
335 9956
336 386
336 392
336 542
336 730
336 848
336 904
336 925
336 1210
336 1308
336 1623
336 1667
336 1707
336 1884
336 2084
336 2244
336 2266
336 2273
336 2358
336 2400
336 2430
336 2433
336 2466
336 2586
336 2591
336 2696
336 3065
336 3123
336 3200
336 3202
336 3272
336 3390
336 3423
336 3536
336 3646
336 3740
336 3803
336 3974
336 4094
336 4298
336 4629
336 5342
336 5589
336 5613
336 5962
336 6501
336 6603
336 6619
336 6741
336 6858
336 7310
336 7637
336 7697
336 7856
336 7947
336 8057
336 8129
336 8242
336 8484
336 8526
336 8732
336 8765
336 9171
336 9331
336 9517
336 7558
337 460
337 607
337 846
337 869
337 885
337 1035
337 1630
337 1654
337 1876
337 1890
337 1923
337 1954
337 2005
337 2183
337 2252
337 2626
337 2766
337 2803
337 2819
337 3182
337 4659
337 4853
337 4928
337 5510
337 5637
337 6481
337 6496
337 6851
337 7050
337 7716
337 7918
337 8958
338 359
338 386
338 397
338 492
338 579
338 600
338 736
338 871
338 1043
338 1200
338 1318
338 1347
338 1849
338 2066
338 2082
338 2129
338 2405
338 2769
338 2887
338 2927
338 2968
338 3189
338 3226
338 3265
338 3779
338 4262
338 4423
338 4426
338 4432
338 4458
338 4542
338 4575
338 4642
338 4846
338 4924
338 5094
338 5235
338 5274
338 5452
338 5513
338 5534
338 5602
338 5718
338 5727
338 5741
338 6236
338 6421
338 6774
338 6875
338 7021
338 7240
338 7375
338 7857
338 8122
338 8144
338 8466
338 8876
338 9089
338 9882
339 919
339 990
339 1050
339 1338
339 1607
339 1814
339 1888
339 2020
339 2230
339 4510
339 4972
339 5432
339 5919
339 6147
339 6338
339 6455
339 6846
339 9010
340 350
340 355
340 374
340 401
340 537
340 749
340 779
340 832
340 858
340 867
340 874
340 931
340 1034
340 1044
340 1147
340 1193
340 1310
340 1346
340 1435
340 1545
340 1642
340 1757
340 1797
340 1842
340 2007
340 2016
340 2278
340 2421
340 2697
340 2707
340 3133
340 3209
340 3319
340 3455
340 3655
340 3661
340 4488
340 4596
340 4711
340 5215
340 5486
340 5528
340 6151
340 6305
340 6385
340 6937
340 7115
340 7801
340 8703
340 8735
340 9044
340 9526
340 9552
340 9711
341 394
341 506
341 559
341 595
341 642
341 961
341 1468
341 1530
341 1538
341 1589
341 1596
341 1687
341 1870
341 1872
341 2531
341 2563
341 2885
341 3169
341 3175
341 3803
341 4276
341 4621
341 4954
341 5017
341 5432
341 5457
341 5937
341 6747
341 6791
341 7556
341 8367
341 8578
341 9289
341 9629
342 380
342 446
342 697
342 709
342 838
342 890
342 1003
342 1022
342 1276
342 1380
342 1394
342 1413
342 1466
342 1740
342 1820
342 1860
342 1980
342 2039
342 2371
342 2427
342 2531
342 2654
342 2729
342 3074
342 3171
342 3489
342 3604
342 3618
342 3631
342 3726
342 3738
342 3910
342 3962
342 3963
342 3990
342 4011
342 4260
342 4269
342 4425
342 4506
342 4679
342 4742
342 5581
342 5710
342 6179
342 6224
342 6245
342 7066
342 7200
342 7316
342 7632
342 8030
342 8463
342 8755
342 8836
342 9158
342 9777
342 9812
343 402
343 430
343 493
343 515
343 538
343 708
343 872
343 901
343 1107
343 1138
343 1192
343 1236
343 1285
343 1363
343 1758
343 1920
343 1964
343 2382
343 2399
343 2502
343 2934
343 3031
343 3232
343 3380
343 3555
343 3665
343 3666
343 4483
343 4665
343 4666
343 4696
343 4755
343 4810
343 4826
343 5035
343 5211
343 5329
343 5335
343 5380
343 5608
343 5982
343 6082
343 6117
343 6344
343 6406
343 6449
343 6573
343 6751
343 6818
343 7011
343 7152
343 7244
343 7692
343 7739
343 8083
343 8577
343 8732
343 9226
343 9503
343 9521
343 9695
343 9891
343 9922
343 9963
344 525
344 526
344 580
344 640
344 766
344 851
344 1016
344 1044
344 1048
344 1049
344 1073
344 1114
344 1194
344 1319
344 1348
344 1461
344 1476
344 1653
344 1991
344 2012
344 2036
344 2065
344 2093
344 2164
344 2279
344 2398
344 2423
344 2662
344 2873
344 3381
344 3519
344 3674
344 3810
344 4000
344 4071
344 4112
344 4160
344 4475
344 4502
344 4550
344 4577
344 4738
344 5123
344 5314
344 5559
344 5793
344 5906
344 6331
344 6690
344 6924
344 6935
344 7125
344 7135
344 7272
344 7347
344 7722
344 7853
344 8304
344 9029
344 9903
345 369
345 377
345 455
345 592
345 656
345 992
345 1157
345 1165
345 1172
345 1188
345 1316
345 1329
345 1360
345 1372
345 2010
345 2023
345 2305
345 2493
345 2528
345 2571
345 3080
345 3607
345 3693
345 3739
345 3838
345 4376
345 4516
345 4670
345 5351
345 5625
345 5737
345 5812
345 6064
345 6170
345 6378
345 6763
345 6853
345 6948
345 7271
345 7306
345 7343
345 7401
345 7637
345 7762
345 7832
345 8095
345 8415
345 9211
345 9323
345 9787
346 354
346 382
346 406
346 427
346 462
346 516
346 519
346 635
346 713
346 715
346 737
346 846
346 930
346 1021
346 1257
346 1367
346 1409
346 2011
346 2166
346 2258
346 3079
346 3149
346 3186
346 3243
346 3490
346 3675
346 4615
346 4977
346 5449
346 5537
346 5670
346 6015
346 6782
346 7120
346 7485
346 7573
346 8574
346 9134
346 9437
346 9555
346 9881
347 467
347 541
347 568
347 599
347 602
347 771
347 781
347 1041
347 1100
347 1159
347 1428
347 1433
347 1484
347 1518
347 1648
347 1679
347 1763
347 2062
347 2404
347 2430
347 2452
347 2461
347 2609
347 2622
347 2762
347 2808
347 3026
347 3080
347 3141
347 3368
347 3567
347 3572
347 3575
347 3935
347 4601
347 4695
347 4875
347 4945
347 5141
347 5467
347 5632
347 5957
347 5992
347 6097
347 6323
347 6328
347 6563
347 6614
347 6919
347 7143
347 7420
347 8604
347 8899
347 8931
347 9082
347 9156
347 9428
347 9767
348 528
348 581
348 617
348 648
348 663
348 697
348 891
348 1069
348 1412
348 1487
348 1735
348 2714
348 2811
348 2958
348 3046
348 3178
348 3440
348 4129
348 4370
348 4400
348 4604
348 4915
348 4919
348 6843
348 6856
348 6977
348 7177
348 7457
348 7558
348 7651
348 7966
348 8059
348 8138
348 8272
348 8818
348 9233
348 9377
348 9673
348 9759
349 381
349 426
349 472
349 515
349 637
349 668
349 1028
349 1099
349 1169
349 1341
349 1470
349 1503
349 1648
349 1690
349 2114
349 2193
349 2400
349 3047
349 3192
349 3330
349 4298
349 4415
349 5401
349 5442
349 5697
349 5773
349 6263
349 7543
349 8710
349 8724
350 371
350 461
350 486
350 530
350 596
350 712
350 769
350 909
350 1159
350 1242
350 1305
350 1316
350 1372
350 1584
350 1609
350 1681
350 1804
350 1828
350 1870
350 1899
350 2045
350 2457
350 2513
350 2529
350 3207
350 3311
350 3365
350 3503
350 3581
350 3981
350 4077
350 4156
350 4223
350 4611
350 4791
350 4983
350 5271
350 5573
350 5681
350 5826
350 6246
350 7097
350 7280
350 7303
350 7468
350 7552
350 8574
350 8840
350 9231
350 9298
351 477
351 605
351 631
351 651
351 659
351 710
351 876
351 1142
351 1144
351 1190
351 1274
351 1370
351 1423
351 1622
351 1711
351 1741
351 2031
351 2083
351 2134
351 2162
351 2334
351 2338
351 2778
351 3001
351 3446
351 3611
351 3751
351 3944
351 4030
351 4785
351 4932
351 5092
351 5098
351 5203
351 5246
351 5817
351 6338
351 6867
351 7180
351 7266
351 7860
351 9303
352 394
352 422
352 440
352 474
352 720
352 785
352 797
352 917
352 973
352 1001
352 1053
352 1177
352 1418
352 1443
352 1454
352 1471
352 1838
352 1854
352 1901
352 1924
352 2176
352 2215
352 2366
352 2550
352 3079
352 3333
352 3501
352 3557
352 3665
352 3715
352 3852
352 3883
352 3936
352 4020
352 4743
352 4917
352 5168
352 5403
352 5488
352 5517
352 6157
352 6309
352 6351
352 6886
352 7398
352 7476
352 7529
352 7553
352 7993
352 8054
352 8108
352 8131
352 8314
352 8350
352 8370
352 8400
352 8626
352 8996
352 9182
352 9230
352 9454
352 9547
352 9692
352 9876
352 9928
353 366
353 392
353 426
353 484
353 511
353 521
353 653
353 722
353 777
353 843
353 869
353 1011
353 1090
353 1103
353 1222
353 1273
353 1302
353 1391
353 2047
353 2164
353 2233
353 2241
353 2302
353 2305
353 2476
353 2567
353 2614
353 2676
353 3076
353 3185
353 3346
353 3385
353 3521
353 3751
353 4192
353 4375
353 4509
353 5102
353 5153
353 5785
353 6120
353 6225
353 6535
353 6734
353 7099
353 7285
353 7457
353 7496
353 7667
353 7743
353 8143
353 8973
353 9587
353 9796
354 454
354 523
354 721
354 882
354 1130
354 1243
354 1436
354 1554
354 1615
354 1663
354 1679
354 1764
354 2136
354 2162
354 2243
354 2649
354 2751
354 2779
354 3159
354 3223
354 3654
354 3738
354 4381
354 4453
354 4762
354 5289
354 5446
354 5467
354 5634
354 5729
354 5887
354 5964
354 6299
354 6454
354 6466
354 7000
354 7743
354 7761
354 7780
354 7820
354 8130
354 8247
354 8303
354 9304
354 9482
354 9539
354 9595
354 9762
355 397
355 419
355 558
355 572
355 718
355 914
355 1068
355 1348
355 2314
355 2320
355 2938
355 3354
355 3438
355 3989
355 4363
355 4394
355 4618
355 4691
355 5055
355 5714
355 6372
355 6643
355 6690
355 7009
355 7200
355 8008
355 8149
355 8680
355 8759
355 9065
355 9654
356 392
356 398
356 424
356 527
356 547
356 617
356 639
356 695
356 759
356 1076
356 1096
356 1213
356 1424
356 1561
356 1589
356 1626
356 1752
356 1801
356 1872
356 1910
356 1952
356 2085
356 2109
356 2285
356 2428
356 2610
356 2632
356 2670
356 2682
356 2767
356 2940
356 3608
356 3611
356 3965
356 4178
356 4208
356 4225
356 4499
356 4605
356 4788
356 4907
356 5169
356 5461
356 5740
356 5841
356 6058
356 6603
356 6715
356 6785
356 6868
356 7241
356 7401
356 7477
356 7487
356 7619
356 7976
356 8299
356 8330
356 8484
356 9069
356 9131
356 9425
356 9463
356 9710
356 9822
357 366
357 491
357 714
357 893
357 901
357 1098
357 1257
357 2033
357 2321
357 2361
357 3590
357 3649
357 3780
357 4033
357 5103
357 5363
357 5632
357 5769
357 6314
357 6511
357 6538
357 7240
357 7331
357 8381
357 8725
357 8916
357 9576
357 9709
357 9918
358 371
358 409
358 458
358 524
358 713
358 791
358 797
358 818
358 870
358 966
358 1039
358 1136
358 1139
358 1287
358 1323
358 1397
358 1725
358 1808
358 1882
358 2127
358 2175
358 2255
358 2297
358 2483
358 2727
358 2784
358 3050
358 3277
358 3668
358 3683
358 3781
358 3902
358 3982
358 4185
358 4193
358 4271
358 4310
358 4536
358 5370
358 5419
358 5506
358 5523
358 5587
358 5621
358 5742
358 6242
358 6269
358 6285
358 6447
358 6552
358 6683
358 7028
358 7104
358 7780
358 7902
358 8076
358 8363
358 8451
358 8738
358 9252
358 9343
358 9431
358 9587
359 600
359 665
359 668
359 742
359 823
359 984
359 1114
359 1212
359 1213
359 1790
359 1995
359 2245
359 2357
359 2405
359 2801
359 3892
359 4126
359 4264
359 4647
359 5027
359 5217
359 5701
359 6108
359 6225
359 6242
359 6350
359 6553
359 6792
359 7824
359 8127
359 8363
359 8416
359 9860
360 375
360 502
360 689
360 788
360 792
360 833
360 848
360 867
360 878
360 887
360 910
360 911
360 1168
360 1190
360 1215
360 1366
360 1422
360 1579
360 1751
360 1783
360 1813
360 2001
360 2058
360 2110
360 2123
360 2161
360 2198
360 2371
360 2453
360 2651
360 2669
360 2854
360 2939
360 3166
360 3182
360 3322
360 3430
360 3631
360 3650
360 3695
360 3720
360 3761
360 3827
360 4021
360 4070
360 4246
360 4362
360 4563
360 4686
360 5073
360 5119
360 5137
360 5315
360 6012
360 6506
360 6515
360 6596
360 6638
360 6796
360 6904
360 6952
360 7487
360 8534
360 8815
360 8938
360 9149
360 9893
361 447
361 944
361 1634
361 1848
361 2131
361 2228
361 2532
361 3197
361 3667
361 3837
361 3922
361 4078
361 4126
361 4156
361 4470
361 4641
361 4663
361 5264
361 5636
361 5832
361 5861
361 5977
361 6408
361 6451
361 7612
361 7685
361 8305
361 8546
361 8631
361 8666
361 8946
361 9522
362 398
362 435
362 570
362 602
362 1104
362 1215
362 1255
362 1547
362 1895
362 2046
362 2276
362 2315
362 2572
362 2587
362 3914
362 4321
362 4679
362 4942
362 4944
362 4956
362 5323
362 5425
362 6096
362 6463
362 6579
362 6808
362 7960
362 8189
362 8599
362 8706
362 9618
363 410
363 613
363 708
363 734
363 1105
363 1204
363 1519
363 1559
363 1913
363 2170
363 2352
363 2551
363 2573
363 2592
363 2914
363 3262
363 3414
363 3505
363 3679
363 4172
363 4257
363 4596
363 6285
363 7623
363 8015
363 8880
363 9180
363 9923
363 9998
364 464
364 473
364 493
364 836
364 848
364 1033
364 1370
364 1414
364 1469
364 1472
364 1499
364 1735
364 1944
364 2039
364 2254
364 2852
364 3552
364 3665
364 3820
364 4195
364 4215
364 4330
364 4430
364 4473
364 5057
364 5386
364 5668
364 5705
364 5923
364 5994
364 6152
364 6599
364 6980
364 7087
364 7150
364 7236
364 7628
364 7648
364 7741
364 8436
364 8788
364 9806
365 397
365 582
365 609
365 612
365 614
365 691
365 789
365 847
365 989
365 991
365 1006
365 1027
365 1042
365 1216
365 1383
365 1657
365 1721
365 1959
365 1973
365 2141
365 2142
365 2180
365 2861
365 2874
365 3142
365 3250
365 3499
365 3918
365 4378
365 4930
365 5039
365 5071
365 5827
365 6197
365 6280
365 6583
365 6632
365 6749
365 6798
365 7043
365 8314
365 8967
365 9064
365 9713
365 9748
366 424
366 491
366 531
366 699
366 709
366 841
366 1152
366 1234
366 1378
366 1561
366 1783
366 1867
366 1958
366 1965
366 1998
366 2206
366 2565
366 2629
366 2658
366 2728
366 2871
366 2982
366 3180
366 3937
366 4152
366 4509
366 4554
366 4662
366 4950
366 5417
366 5798
366 7393
366 7417
366 7435
366 7497
366 7712
366 8826
366 9247
367 712
367 1172
367 1504
367 1560
367 2072
367 2250
367 2365
367 2599
367 3246
367 3869
367 4417
367 4737
367 4910
367 5101
367 5476
367 5487
367 6021
367 6120
367 6918
367 7659
367 8422
367 8732
368 459
368 461
368 495
368 562
368 755
368 995
368 1084
368 1189
368 1272
368 1305
368 1427
368 1432
368 1621
368 1688
368 1855
368 2070
368 2106
368 2131
368 2615
368 2773
368 2968
368 3030
368 3050
368 3109
368 3424
368 3672
368 3735
368 4543
368 4667
368 5082
368 5347
368 5479
368 5633
368 5670
368 5978
368 6020
368 6098
368 6242
368 6966
368 7597
368 7695
368 7744
368 7789
368 8095
368 8216
368 8312
368 8317
368 8521
368 8622
368 9128
368 9195
368 9340
368 9513
369 533
369 599
369 641
369 924
369 1003
369 1058
369 1176
369 1269
369 1283
369 1576
369 1653
369 1736
369 1792
369 1943
369 2107
369 2156
369 2457
369 3182
369 3546
369 3919
369 4481
369 4635
369 4659
369 4720
369 4813
369 5522
369 6224
369 6271
369 6422
369 6803
369 6917
369 7009
369 7176
369 7653
369 7676
369 7804
369 7924
369 8499
369 8549
369 9123
369 9344
369 9463
370 619
370 729
370 744
370 1039
370 1153
370 1295
370 1318
370 1361
370 1402
370 1420
370 1509
370 1950
370 1962
370 2392
370 2461
370 2823
370 2838
370 3116
370 3449
370 3509
370 3526
370 3765
370 6890
370 7348
370 7383
370 7677
370 8133
370 8892
371 384
371 385
371 430
371 472
371 568
371 656
371 705
371 746
371 1939
371 2610
371 2661
371 2818
371 3025
371 3319
371 3613
371 3660
371 4106
371 4343
371 6214
371 6567
371 6827
371 7119
371 7215
371 7792
371 9666
372 406
372 429
372 481
372 539
372 578
372 601
372 635
372 835
372 971
372 1433
372 1550
372 1622
372 1838
372 1935
372 2180
372 2482
372 2503
372 2888
372 2991
372 3516
372 3736
372 3943
372 4121
372 4201
372 4389
372 4631
372 4820
372 4937
372 4989
372 5860
372 6201
372 7467
372 7681
372 7732
372 7847
372 7893
372 8033
372 8164
372 8261
372 8440
372 8578
372 8754
372 8872
372 8909
372 9502
372 9763
373 412
373 453
373 466
373 468
373 479
373 631
373 661
373 679
373 703
373 810
373 873
373 891
373 1083
373 1098
373 1157
373 1413
373 1488
373 1561
373 1744
373 1868
373 1999
373 2133
373 2271
373 2279
373 2288
373 2291
373 2601
373 2682
373 3145
373 3185
373 3291
373 3502
373 3963
373 3990
373 4150
373 4259
373 4416
373 4625
373 4945
373 5029
373 5199
373 5225
373 5297
373 5386
373 6166
373 6313
373 6683
373 7748
373 8241
373 8273
373 8326
373 8530
373 9022
373 9250
373 9570
373 9819
374 504
374 701
374 813
374 827
374 1484
374 1727
374 2797
374 3024
374 3228
374 3696
374 3819
374 3823
374 4052
374 4606
374 4639
374 5889
374 6383
374 6757
374 6767
374 7902
374 8367
374 8395
374 9379
374 9663
374 9933
375 413
375 508
375 530
375 545
375 602
375 653
375 726
375 884
375 902
375 1020
375 1637
375 1781
375 1907
375 2005
375 2034
375 2477
375 2491
375 2510
375 2572
375 2724
375 2847
375 2904
375 2972
375 3034
375 3449
375 3564
375 3606
375 3673
375 3750
375 3815
375 3885
375 3969
375 4054
375 4128
375 4163
375 4175
375 4922
375 4998
375 5306
375 5406
375 5417
375 5632
375 5690
375 5887
375 5928
375 5975
375 6291
375 6294
375 6473
375 6549
375 6673
375 7258
375 7728
375 7826
375 7961
375 9225
375 9936
376 389
376 603
376 671
376 1078
376 1154
376 1198
376 1230
376 1634
376 1653
376 1806
376 1842
376 1973
376 2151
376 2231
376 2464
376 2575
376 2601
376 2609
376 2681
376 2744
376 3145
376 3201
376 3880
376 4293
376 4370
376 4751
376 4766
376 4773
376 4908
376 5329
376 5501
376 5765
376 6574
376 6644
376 6862
376 7954
376 8199
376 8321
376 8602
376 8993
377 413
377 423
377 471
377 482
377 518
377 546
377 563
377 632
377 732
377 791
377 834
377 887
377 890
377 977
377 1063
377 1169
377 1170
377 1181
377 1197
377 1237
377 1367
377 1389
377 1533
377 1543
377 1577
377 1594
377 1743
377 2228
377 2276
377 2523
377 2536
377 2806
377 2844
377 2884
377 3110
377 3306
377 3360
377 3641
377 3769
377 4211
377 4412
377 4638
377 4761
377 4999
377 5057
377 5071
377 5342
377 5381
377 5563
377 6185
377 6274
377 6297
377 6576
377 6975
377 7108
377 7162
377 7301
377 7454
377 7463
377 7928
377 7945
377 8281
377 9358
377 9486
377 9536
378 555
378 561
378 621
378 714
378 771
378 1069
378 1086
378 1095
378 1121
378 1563
378 1797
378 1985
378 2100
378 2159
378 2492
378 2577
378 2694
378 2775
378 2780
378 3106
378 3173
378 3433
378 3526
378 3760
378 3788
378 3864
378 5186
378 5276
378 5710
378 5760
378 6029
378 6331
378 6962
378 7470
378 7503
378 8041
378 8195
378 8276
378 8547
378 9070
378 9148
378 9720
379 380
379 493
379 506
379 644
379 979
379 1111
379 1678
379 1948
379 2323
379 2334
379 2464
379 3003
379 3052
379 3388
379 3690
379 3913
379 3959
379 4097
379 5459
379 6440
379 7569
379 8607
379 8691
379 9159
380 381
380 469
380 475
380 480
380 574
380 603
380 694
380 716
380 739
380 792
380 804
380 1090
380 1266
380 1272
380 1848
380 1868
380 1964
380 2068
380 2638
380 2691
380 2736
380 2792
380 2833
380 2994
380 3164
380 3694
380 3724
380 3908
380 3912
380 4055
380 4356
380 4641
380 4866
380 5002
380 5687
380 6067
380 6191
380 6279
380 6653
380 6956
380 7066
380 7674
380 7874
380 8096
380 8166
380 8361
380 8526
380 8618
380 9324
380 9444
380 9678
380 9718
380 9791
380 9935
381 589
381 648
381 656
381 720
381 1011
381 1109
381 1423
381 1750
381 1924
381 2181
381 2186
381 2752
381 3211
381 3584
381 3615
381 3850
381 4325
381 4407
381 4501
381 4802
381 4849
381 5338
381 5612
381 6125
381 6815
381 7322
381 7345
381 7599
381 7776
381 8221
381 8582
381 8876
381 8972
381 9223
382 537
382 782
382 794
382 828
382 849
382 919
382 1011
382 1379
382 1602
382 1663
382 2031
382 2438
382 2562
382 3040
382 3264
382 3345
382 3426
382 3439
382 3639
382 4050
382 4174
382 4179
382 4191
382 4358
382 4866
382 5148
382 5293
382 5550
382 5810
382 6846
382 7132
382 7417
382 7430
382 7749
382 7983
382 8074
382 9196
382 9258
383 388
383 432
383 460
383 468
383 712
383 762
383 933
383 1108
383 1781
383 2452
383 2474
383 2548
383 2595
383 2729
383 3037
383 3340
383 3344
383 3472
383 3949
383 4307
383 4354
383 4484
383 4782
383 5458
383 6842
383 7379
383 7763
383 7871
383 8011
383 8848
383 9067
384 445
384 448
384 472
384 548
384 566
384 641
384 783
384 888
384 1107
384 1112
384 1117
384 1317
384 1618
384 1719
384 1733
384 1979
384 2085
384 2204
384 2205
384 2398
384 2511
384 2644
384 2687
384 2851
384 3390
384 3539
384 3703
384 3730
384 3875
384 3949
384 4114
384 4231
384 4580
384 4735
384 5143
384 5679
384 5711
384 6581
384 6949
384 7439
384 7755
384 7936
384 8080
384 8178
384 8812
384 8897
384 8928
385 391
385 396
385 398
385 540
385 550
385 599
385 655
385 785
385 1137
385 1437
385 1933
385 2068
385 2221
385 2365
385 2797
385 3107
385 4306
385 4880
385 5205
385 5229
385 5338
385 5709
385 5733
385 5923
385 5952
385 5969
385 6077
385 6085
385 6293
385 6376
385 7058
385 7438
385 8172
385 8182
385 8521
385 9360
386 548
386 598
386 706
386 753
386 899
386 944
386 969
386 1440
386 1481
386 1524
386 1895
386 1916
386 2042
386 2127
386 2493
386 2789
386 3098
386 3563
386 4032
386 4514
386 4939
386 5259
386 5593
386 6093
386 6403
386 7561
386 9235
386 9466
386 9494
387 499
387 570
387 579
387 646
387 662
387 695
387 697
387 735
387 859
387 869
387 1062
387 1344
387 1363
387 1459
387 1659
387 1699
387 1719
387 1783
387 1957
387 1963
387 2381
387 2496
387 3147
387 3422
387 3425
387 3769
387 4395
387 4661
387 4918
387 5112
387 5239
387 5509
387 6030
387 6381
387 6389
387 6657
387 7274
387 7425
387 7619
387 7779
387 8184
387 8460
387 8564
387 8575
387 8639
387 8895
387 8903
387 9218
387 9923
388 673
388 1866
388 2110
388 2256
388 2441
388 2520
388 2606
388 2848
388 3568
388 3689
388 4012
388 4139
388 4965
388 5591
388 6037
388 6609
388 7299
388 7414
388 8262
388 9064
388 9104
388 9371
388 9514
389 443
389 558
389 576
389 647
389 795
389 921
389 1098
389 1160
389 1333
389 1411
389 1425
389 1472
389 1613
389 1825
389 1908
389 1967
389 2007
389 2111
389 2161
389 2183
389 2922
389 3232
389 3579
389 4739
389 5181
389 5216
389 5623
389 5770
389 5812
389 5859
389 6101
389 6367
389 6409
389 7245
389 7445
389 7495
389 7703
389 7850
389 8266
389 8336
389 8535
389 8856
389 9210
389 9346
389 9599
389 9791
389 9811
389 9880
390 421
390 507
390 624
390 667
390 717
390 888
390 1037
390 1042
390 1092
390 1406
390 1452
390 1695
390 2250
390 2642
390 2997
390 3708
390 4002
390 4168
390 4464
390 4708
390 4755
390 5290
390 5776
390 7013
390 7474
390 7784
390 8807
390 9137
390 9565
391 854
391 984
391 1019
391 1919
391 2003
391 2098
391 2139
391 2898
391 2907
391 3106
391 3304
391 3345
391 3656
391 3833
391 3836
391 4005
391 4958
391 5404
391 5442
391 5535
391 5598
391 5678
391 6008
391 6090
391 7518
391 7925
391 8684
391 9031
391 9300
391 9675
391 9829
391 9964
392 565
392 736
392 741
392 962
392 1012
392 1073
392 1223
392 1228
392 1985
392 2025
392 2076
392 2211
392 2482
392 2509
392 2520
392 2674
392 3148
392 3287
392 4237
392 4242
392 4275
392 4451
392 5158
392 5783
392 6767
392 6857
392 8283
392 8296
392 8452
392 8507
392 8898
392 9698
392 9793
393 405
393 522
393 545
393 584
393 588
393 658
393 692
393 972
393 1308
393 1463
393 1511
393 2113
393 2754
393 2809
393 3757
393 3784
393 4374
393 4535
393 4720
393 4739
393 4801
393 4814
393 5451
393 5863
393 6284
393 7224
393 7333
393 7686
393 7848
393 8030
393 8072
393 8888
393 8926
393 9166
393 9602
394 510
394 894
394 926
394 1067
394 1321
394 1383
394 1424
394 1430
394 1437
394 1466
394 1559
394 1682
394 1868
394 1875
394 2166
394 2292
394 2320
394 2324
394 2468
394 2925
394 3416
394 3687
394 4010
394 4181
394 4274
394 4381
394 5055
394 5163
394 5266
394 5334
394 5516
394 6319
394 6647
394 6896
394 7855
394 8386
394 8890
394 9849
394 9925
395 399
395 413
395 420
395 441
395 621
395 662
395 688
395 694
395 717
395 745
395 781
395 790
395 882
395 892
395 941
395 944
395 951
395 1278
395 1340
395 1390
395 1647
395 1817
395 1895
395 2016
395 2146
395 2239
395 2659
395 3236
395 3310
395 3506
395 3510
395 3513
395 3576
395 3657
395 3716
395 4225
395 4480
395 4507
395 4619
395 4668
395 4799
395 4835
395 4889
395 5231
395 5818
395 6114
395 6121
395 6175
395 6364
395 6429
395 6570
395 6627
395 6952
395 7044
395 7077
395 7120
395 7285
395 7549
395 7828
395 8166
395 8186
395 8459
395 8568
395 8751
395 8905
395 9121
395 9255
395 9455
395 9492
395 9599
395 9998
396 443
396 506
396 676
396 873
396 876
396 878
396 942
396 1362
396 1516
396 2110
396 2243
396 3770
396 3892
396 6068
396 6497
396 7391
396 7521
396 8028
396 8704
396 9007
396 9173
396 9637
396 9640
396 9642
397 427
397 469
397 562
397 722
397 788
397 981
397 1069
397 1334
397 1655
397 1704
397 2078
397 2234
397 2496
397 2502
397 2505
397 2676
397 2691
397 2730
397 2942
397 3115
397 3285
397 3889
397 4356
397 4698
397 4886
397 6037
397 6140
397 6515
397 6561
397 6693
397 7273
397 7433
397 7541
397 7741
397 7763
397 8113
397 8908
397 9116
397 9197
398 400
398 403
398 422
398 423
398 434
398 449
398 453
398 522
398 643
398 672
398 731
398 732
398 775
398 989
398 1351
398 1662
398 1895
398 2079
398 2118
398 2173
398 2335
398 2466
398 2837
398 2943
398 3195
398 3378
398 3388
398 3393
398 3520
398 3577
398 4024
398 4035
398 4066
398 4244
398 4301
398 4350
398 4566
398 4718
398 4786
398 4791
398 5420
398 5550
398 5709
398 5916
398 5995
398 6205
398 6274
398 6477
398 6708
398 6748
398 6839
398 6878
398 7730
398 8067
398 8142
398 8380
398 8988
398 9224
398 9405
398 9598
398 9600
398 9838
399 411
399 441
399 522
399 572
399 598
399 613
399 656
399 694
399 770
399 1007
399 1057
399 1079
399 1811
399 1812
399 2044
399 2074
399 2119
399 2203
399 2212
399 2381
399 2756
399 3090
399 3093
399 3210
399 3337
399 3646
399 3664
399 3692
399 3852
399 4025
399 4285
399 4688
399 4818
399 4920
399 5347
399 5759
399 5784
399 5909
399 6014
399 6071
399 6204
399 6778
399 7031
399 7076
399 7081
399 7083
399 7250
399 7260
399 7297
399 7498
399 7883
399 8046
399 9032
399 9187
399 9484
399 9573
399 9664
400 524
400 569
400 873
400 875
400 981
400 1035
400 1287
400 1297
400 1956
400 2433
400 2929
400 3204
400 3271
400 3289
400 3338
400 3799
400 3967
400 4052
400 4830
400 4916
400 4991
400 5075
400 5269
400 5295
400 5430
400 5584
400 5796
400 6169
400 6683
400 7346
400 9003
400 9341
400 6110
401 460
401 547
401 749
401 802
401 993
401 1200
401 1700
401 1957
401 2321
401 3975
401 4181
401 6089
401 6237
401 6699
401 6798
401 7365
401 9090
402 791
402 880
402 961
402 1026
402 1070
402 1114
402 1226
402 1239
402 1272
402 2348
402 2568
402 2577
402 3423
402 3485
402 3524
402 3579
402 4183
402 4959
402 5042
402 5825
402 6573
402 7432
402 7523
402 8022
402 8298
402 8338
402 9426
403 456
403 477
403 615
403 726
403 794
403 871
403 1193
403 1402
403 1663
403 1668
403 1931
403 2007
403 2022
403 2333
403 2735
403 2864
403 2996
403 3036
403 3095
403 3405
403 3850
403 3884
403 4596
403 4696
403 4722
403 4886
403 5363
403 5646
403 5844
403 5973
403 6719
403 6757
403 7320
403 7840
403 8057
403 8284
403 8472
403 8811
404 438
404 464
404 513
404 519
404 524
404 540
404 567
404 751
404 913
404 1059
404 1076
404 1093
404 1393
404 1633
404 1777
404 1880
404 2042
404 2101
404 2136
404 2471
404 2678
404 2752
404 2765
404 2898
404 2996
404 3269
404 3389
404 3406
404 3654
404 3725
404 3806
404 3818
404 4114
404 4236
404 4618
404 4975
404 5397
404 5415
404 5427
404 5917
404 6064
404 6310
404 6570
404 6855
404 7566
404 7948
404 7982
404 7989
404 8020
404 8333
404 8613
404 8620
404 8636
404 8861
404 9189
404 9372
405 462
405 473
405 622
405 716
405 794
405 1231
405 1345
405 1401
405 1417
405 1482
405 1909
405 2356
405 2625
405 2832
405 2834
405 2949
405 3318
405 3475
405 3960
405 3964
405 4103
405 4293
405 4780
405 4883
405 5174
405 5400
405 6187
405 6276
405 7017
405 7636
405 7785
405 8125
405 8219
405 8519
405 8611
405 8795
405 9367
405 9441
405 9655
405 9768
405 9894
405 9960
406 408
406 430
406 782
406 814
406 987
406 1024
406 1031
406 1046
406 1624
406 1810
406 1823
406 2220
406 2292
406 2383
406 2434
406 2588
406 2703
406 2983
406 3273
406 3786
406 4052
406 4121
406 4733
406 4740
406 4935
406 4947
406 5151
406 5209
406 5288
406 5507
406 5784
406 6309
406 6443
406 6745
406 7155
406 7577
406 7661
406 7909
406 8381
406 8887
406 8994
406 9299
406 9393
406 9970
407 427
407 587
407 593
407 713
407 855
407 919
407 1312
407 1520
407 1911
407 1912
407 2325
407 2396
407 2604
407 2624
407 2881
407 3196
407 3330
407 3546
407 3766
407 3833
407 3995
407 4119
407 4316
407 4899
407 4918
407 6197
407 6378
407 6791
407 7209
407 7585
407 8017
407 8492
407 8798
407 9037
407 9781
407 9885
407 9976
408 489
408 504
408 513
408 523
408 553
408 700
408 712
408 755
408 768
408 865
408 869
408 913
408 1019
408 1076
408 1361
408 1462
408 1614
408 1652
408 1867
408 1985
408 2091
408 2098
408 2103
408 2222
408 2349
408 2511
408 3228
408 3559
408 3671
408 3825
408 4020
408 4027
408 4090
408 4146
408 4722
408 4821
408 5069
408 5185
408 5299
408 5320
408 5416
408 6078
408 6082
408 6222
408 6223
408 6681
408 6992
408 7021
408 7047
408 7078
408 7719
408 9108
408 9483
408 9524
408 9903
409 462
409 585
409 608
409 615
409 1183
409 1379
409 1392
409 1413
409 1540
409 1602
409 1753
409 1923
409 1924
409 2073
409 2338
409 2366
409 2607
409 3111
409 3119
409 3196
409 3537
409 3913
409 3973
409 4082
409 4126
409 4218
409 4391
409 4654
409 5228
409 5237
409 6346
409 6669
409 6774
409 7251
409 8799
409 8831
409 9427
409 9691
409 9933
410 413
410 420
410 756
410 760
410 787
410 835
410 999
410 1254
410 1447
410 1475
410 1517
410 1583
410 1599
410 1650
410 1978
410 2121
410 2380
410 2436
410 2530
410 2696
410 2702
410 2962
410 3008
410 3092
410 3096
410 3107
410 3289
410 3458
410 3657
410 3676
410 3905
410 4131
410 4585
410 4609
410 4627
410 5194
410 5288
410 5773
410 5789
410 5913
410 5962
410 6488
410 6733
410 6858
410 7083
410 7371
410 7405
410 8305
410 9048
410 9054
410 9511
410 9977
411 450
411 485
411 749
411 828
411 891
411 932
411 956
411 964
411 1159
411 1163
411 1182
411 1239
411 1255
411 1461
411 1600
411 1630
411 1679
411 1896
411 2050
411 2128
411 2195
411 2273
411 2295
411 2335
411 2582
411 2816
411 2960
411 3269
411 3308
411 3443
411 3828
411 3921
411 4400
411 4471
411 4644
411 4647
411 4827
411 4835
411 4936
411 5137
411 5248
411 5316
411 5823
411 6079
411 6269
411 6411
411 6452
411 6558
411 6790
411 6939
411 7063
411 7434
411 7453
411 7558
411 7646
411 7676
411 7771
411 7777
411 8197
411 8233
411 8453
411 9048
411 9198
411 9313
411 9354
411 9429
411 9653
411 9866
412 429
412 465
412 569
412 595
412 639
412 733
412 744
412 747
412 806
412 859
412 968
412 996
412 1050
412 1158
412 1171
412 1177
412 1420
412 1494
412 1530
412 1842
412 1913
412 1976
412 2161
412 2266
412 2421
412 2452
412 2478
412 2507
412 2513
412 2611
412 2743
412 2778
412 2832
412 2870
412 3091
412 3109
412 3268
412 3270
412 3314
412 3329
412 3674
412 3718
412 3861
412 3878
412 3936
412 4198
412 4227
412 4482
412 4521
412 4615
412 4648
412 4708
412 4802
412 4956
412 5023
412 5186
412 5328
412 5354
412 5568
412 5577
412 5660
412 5983
412 6047
412 6299
412 6435
412 6513
412 6686
412 6997
412 7192
412 7365
412 7446
412 7643
412 8468
412 8478
412 8896
412 9555
412 9637
412 9683
412 9820
412 9867
413 545
413 879
413 963
413 1476
413 1936
413 1998
413 2426
413 2576
413 2960
413 3327
413 3514
413 4176
413 4250
413 4292
413 4686
413 5424
413 5848
413 6305
413 7269
413 7365
413 7890
413 9676
414 456
414 533
414 699
414 702
414 980
414 1000
414 1141
414 1315
414 1676
414 2079
414 2109
414 2442
414 2492
414 2658
414 4596
414 4872
414 5057
414 5857
414 6058
414 6065
414 6191
414 6895
414 7187
414 7217
414 8229
414 8990
414 8997
414 9738
415 792
415 864
415 943
415 1109
415 1135
415 1290
415 1352
415 1830
415 1991
415 2350
415 2448
415 3149
415 3751
415 4335
415 5462
415 5746
415 6143
415 6945
415 8406
415 9399
416 456
416 666
416 808
416 892
416 1046
416 1094
416 1102
416 1165
416 1189
416 1673
416 1860
416 1872
416 2009
416 2053
416 2180
416 2329
416 3322
416 3704
416 3814
416 3864
416 4066
416 4072
416 4262
416 4275
416 4339
416 4380
416 4574
416 4780
416 5796
416 6046
416 6433
416 6887
416 7110
416 7380
416 7582
416 8310
416 9721
417 455
417 591
417 655
417 666
417 747
417 775
417 1050
417 1155
417 1283
417 1305
417 1306
417 1609
417 1840
417 2296
417 2396
417 2473
417 2569
417 2836
417 3553
417 3818
417 5244
417 5423
417 5697
417 6024
417 7762
417 8596
417 8671
417 8851
417 9167
417 9339
417 9793
418 473
418 543
418 550
418 774
418 823
418 885
418 966
418 1102
418 1136
418 1300
418 1358
418 1422
418 1522
418 1580
418 1730
418 2023
418 2125
418 2160
418 2161
418 2265
418 2282
418 2317
418 2341
418 2357
418 2382
418 2405
418 2509
418 2526
418 2634
418 2635
418 2919
418 3017
418 3079
418 3495
418 3653
418 3657
418 5715
418 6136
418 6185
418 6417
418 7258
418 7282
418 7495
418 8011
418 8117
418 8229
418 9038
418 9181
418 9363
418 9790
418 9970
419 444
419 584
419 679
419 772
419 979
419 1009
419 1128
419 1157
419 1197
419 1250
419 1308
419 1360
419 1367
419 1402
419 1451
419 1559
419 1568
419 1698
419 1732
419 1958
419 2166
419 2200
419 2489
419 2647
419 2705
419 2730
419 2893
419 2983
419 3075
419 3085
419 3395
419 3402
419 3521
419 3550
419 3572
419 3697
419 3717
419 3786
419 4019
419 4055
419 4202
419 4212
419 4558
419 4617
419 4749
419 5054
419 5482
419 5488
419 5564
419 5647
419 5907
419 6092
419 6329
419 6417
419 6501
419 6981
419 7193
419 7559
419 7615
419 7680
419 7738
419 8387
419 8440
419 8686
419 9386
420 507
420 629
420 691
420 804
420 856
420 1030
420 1153
420 1164
420 1352
420 1845
420 2282
420 2307
420 2642
420 2717
420 2780
420 3103
420 3551
420 4324
420 4468
420 5454
420 6115
420 6283
420 6692
420 7030
420 7201
420 7408
420 7672
420 8391
420 9183
420 9381
420 9401
420 9488
420 9715
421 495
421 547
421 595
421 611
421 638
421 700
421 812
421 870
421 946
421 1056
421 1063
421 1303
421 1344
421 1462
421 1555
421 1829
421 2403
421 2554
421 2564
421 2729
421 2907
421 3173
421 3281
421 3386
421 3399
421 3440
421 4079
421 4111
421 5001
421 5251
421 5352
421 5581
421 6056
421 6360
421 6546
421 8114
421 8229
421 8578
421 8951
421 9175
421 9672
421 9899
422 474
422 477
422 803
422 877
422 1040
422 1214
422 1226
422 1452
422 1585
422 2239
422 3261
422 3442
422 3528
422 3544
422 3864
422 5169
422 5770
422 6199
422 7671
422 8015
422 8141
422 8684
423 433
423 486
423 517
423 572
423 773
423 1069
423 1148
423 1337
423 1510
423 1669
423 1805
423 1866
423 2086
423 2149
423 2244
423 2654
423 2757
423 2982
423 3150
423 3240
423 3273
423 3412
423 3625
423 3669
423 3743
423 3744
423 4078
423 4317
423 4743
423 4778
423 4955
423 5087
423 5188
423 5278
423 5565
423 5711
423 6927
423 7156
423 7673
423 7714
423 7966
423 7988
423 8570
423 9079
423 9111
423 9216
424 538
424 679
424 845
424 1253
424 1460
424 1483
424 1506
424 1570
424 1645
424 2236
424 2306
424 2369
424 2442
424 2553
424 2721
424 2980
424 3186
424 3218
424 3503
424 4056
424 4109
424 4536
424 4607
424 4739
424 5253
424 5372
424 5994
424 6668
424 6816
424 7049
424 9010
424 9109
424 9481
424 9759
425 441
425 774
425 822
425 894
425 920
425 1481
425 2050
425 2084
425 2613
425 2770
425 2979
425 3376
425 3921
425 4034
425 4168
425 4297
425 4331
425 4456
425 4939
425 5670
425 5966
425 6252
425 7512
425 8274
425 8321
425 8641
425 9188
425 9610
425 9876
426 489
426 626
426 879
426 1059
426 1246
426 1343
426 1721
426 1770
426 1986
426 2013
426 2308
426 2353
426 2647
426 2670
426 2681
426 2740
426 2873
426 3022
426 3120
426 3252
426 3297
426 3354
426 4333
426 4615
426 4883
426 4933
426 4986
426 5407
426 5456
426 6198
426 6289
426 7084
426 7273
426 7305
426 7395
426 7499
426 8150
426 8533
426 8721
426 9444
427 912
427 1106
427 1843
427 2303
427 2481
427 2999
427 3941
427 4691
427 5742
427 5827
427 5955
427 6280
427 6376
427 6748
427 7000
427 7081
427 7854
427 8193
427 8594
427 8966
427 9744
427 9985
428 480
428 546
428 605
428 720
428 882
428 958
428 1251
428 1299
428 1555
428 1646
428 1728
428 2057
428 2092
428 2195
428 2351
428 2516
428 2525
428 2583
428 2617
428 2645
428 3226
428 3314
428 3392
428 4190
428 4592
428 4737
428 5623
428 5821
428 6555
428 6615
428 6695
428 7290
428 7662
428 7883
428 8280
428 8501
428 8971
428 9627
428 9749
428 9914
429 475
429 498
429 517
429 720
429 800
429 893
429 960
429 986
429 1201
429 1599
429 1768
429 2262
429 2347
429 2763
429 3306
429 3762
429 4678
429 4908
429 5079
429 5163
429 5395
429 6004
429 6025
429 6504
429 6682
429 6749
429 7578
429 8648
429 8715
429 8934
429 9421
430 483
430 490
430 1101
430 1544
430 1730
430 1816
430 3103
430 3265
430 3396
430 3855
430 4325
430 4556
430 4691
430 4849
430 5653
430 6123
430 7128
430 8774
430 8859
430 9809
431 514
431 778
431 799
431 892
431 1053
431 1158
431 1292
431 1382
431 1588
431 1695
431 2062
431 2522
431 2553
431 2906
431 3006
431 3025
431 3144
431 3236
431 3441
431 3449
431 3533
431 3753
431 3756
431 3829
431 4193
431 4727
431 4953
431 5252
431 5983
431 6172
431 6293
431 6350
431 6394
431 6613
431 6990
431 7156
431 7388
431 7703
431 7918
431 7984
431 8306
431 8816
431 9045
431 9527
432 534
432 645
432 681
432 836
432 960
432 1187
432 1198
432 1203
432 1235
432 1341
432 1379
432 1542
432 1584
432 2401
432 2494
432 2624
432 2683
432 2809
432 2959
432 3147
432 3347
432 3353
432 3393
432 3616
432 3937
432 4008
432 4185
432 4212
432 4626
432 4947
432 4981
432 5516
432 5682
432 5707
432 5921
432 5948
432 6288
432 6448
432 6673
432 6826
432 6865
432 6980
432 7465
432 7793
432 9078
432 9254
432 9412
432 9726
432 9735
432 9865
432 9872
432 9939
433 439
433 553
433 563
433 646
433 927
433 940
433 1530
433 2461
433 2788
433 2874
433 2940
433 3045
433 3501
433 3548
433 3700
433 4398
433 4845
433 4914
433 5017
433 5030
433 5131
433 5150
433 5249
433 5252
433 5418
433 6074
433 7297
433 7715
433 7723
433 8656
433 8666
433 8967
433 9208
433 9278
433 9558
433 9843
433 9972
434 548
434 644
434 914
434 1065
434 1331
434 1499
434 1601
434 1850
434 1873
434 1955
434 2252
434 2630
434 3125
434 3645
434 4223
434 4620
434 5007
434 5103
434 5296
434 5301
434 5423
434 5496
434 5559
434 5938
434 5968
434 7207
434 7504
434 7878
435 526
435 597
435 666
435 736
435 812
435 940
435 1583
435 1910
435 2051
435 2082
435 2123
435 2433
435 2959
435 3229
435 3401
435 3448
435 4039
435 4315
435 5181
435 5590
435 5761
435 6028
435 6055
435 6203
435 6318
435 6951
435 7787
435 8735
435 8827
435 9051
435 9168
435 9220
436 437
436 533
436 561
436 579
436 580
436 631
436 643
436 673
436 683
436 735
436 791
436 809
436 886
436 896
436 1240
436 1251
436 1505
436 1562
436 1851
436 2726
436 3385
436 3446
436 3747
436 4039
436 4102
436 4329
436 4751
436 5610
436 6285
436 6917
436 7481
436 8849
436 9247
436 9285
436 9592
436 9725
436 9777
437 470
437 523
437 682
437 884
437 896
437 897
437 982
437 1010
437 1192
437 1526
437 1545
437 1571
437 1737
437 1738
437 1796
437 1983
437 2037
437 2307
437 2519
437 2607
437 2767
437 2934
437 3145
437 3161
437 3196
437 3704
437 3706
437 4541
437 4646
437 5380
437 5820
437 5981
437 6034
437 6282
437 7236
437 7241
437 7269
437 7612
437 7801
437 7808
437 8001
437 8250
437 8286
437 8319
437 8408
437 8437
437 8952
437 9051
437 9531
437 9575
437 9644
437 9836
438 455
438 463
438 567
438 568
438 588
438 592
438 622
438 680
438 718
438 759
438 771
438 858
438 888
438 892
438 912
438 965
438 981
438 996
438 1080
438 1206
438 1290
438 1347
438 1431
438 1864
438 2029
438 2038
438 2172
438 2189
438 2269
438 2270
438 2297
438 2478
438 2536
438 2615
438 2650
438 2663
438 2747
438 2973
438 3124
438 3173
438 3452
438 3543
438 3600
438 3651
438 3698
438 3757
438 3783
438 4148
438 4241
438 4392
438 4540
438 4733
438 6447
438 6499
438 6537
438 7064
438 7403
438 7643
438 7726
438 7753
438 7851
438 7947
438 8024
438 8059
438 8063
438 8757
438 9107
438 9173
438 9351
438 9369
438 9644
438 9730
438 9827
439 463
439 610
439 663
439 848
439 1581
439 2080
439 2307
439 2955
439 3101
439 3297
439 3341
439 3369
439 4471
439 4850
439 5277
439 5280
439 5660
439 5915
439 7020
439 8909
439 8996
439 9301
440 547
440 594
440 1206
440 1220
440 1347
440 1415
440 1469
440 1517
440 1618
440 2255
440 2507
440 2610
440 3180
440 3207
440 3557
440 3578
440 3643
440 3727
440 3923
440 4034
440 4100
440 4949
440 5018
440 5300
440 5389
440 5413
440 5514
440 5531
440 5568
440 6089
440 6250
440 6428
440 6645
440 6895
440 7409
440 7493
440 7982
440 8797
440 9338
441 564
441 623
441 663
441 861
441 997
441 1136
441 1166
441 1232
441 1399
441 1664
441 1672
441 2424
441 2603
441 2894
441 2999
441 3176
441 3257
441 3344
441 3658
441 4036
441 4257
441 4303
441 4631
441 5953
441 6311
441 6344
441 6618
441 7043
441 7358
441 7579
441 7686
441 7739
441 7855
441 8432
441 9618
442 1156
442 1445
442 1609
442 1821
442 2272
442 2311
442 2343
442 5430
442 6321
442 6448
442 6691
442 6777
442 6949
442 8290
442 8350
442 8654
442 9625
443 627
443 1124
443 1749
443 2035
443 2426
443 2762
443 2859
443 2888
443 3014
443 3446
443 3680
443 3763
443 3946
443 6163
443 6217
443 6218
443 6510
443 6585
443 7271
443 7399
443 7690
443 7749
443 7815
443 8275
443 9279
444 487
444 706
444 732
444 797
444 1174
444 1297
444 1421
444 1616
444 1957
444 2033
444 2236
444 3010
444 3453
444 3658
444 4100
444 4152
444 4283
444 4328
444 4425
444 5922
444 6355
444 6851
444 7461
444 7885
444 8238
444 8346
444 8401
444 8581
444 8723
444 8972
444 9014
445 572
445 598
445 650
445 805
445 932
445 1068
445 1069
445 1191
445 1681
445 1690
445 1877
445 1934
445 1993
445 2029
445 2037
445 2568
445 2604
445 2868
445 2946
445 3158
445 4361
445 4476
445 5349
445 6250
445 7012
445 7489
445 7616
445 8165
445 8373
445 8397
445 8565
445 8625
445 8797
445 9447
445 9707
445 9730
446 490
446 634
446 805
446 865
446 1432
446 1491
446 1537
446 1541
446 1698
446 1825
446 2020
446 2583
446 2770
446 2796
446 2901
446 2970
446 3172
446 3220
446 3422
446 3866
446 4071
446 4474
446 4712
446 4818
446 5009
446 5409
446 5530
446 6021
446 6095
446 6210
446 6504
446 6563
446 6636
446 6901
446 7098
446 7230
446 7434
446 7639
446 8200
446 8668
446 8926
446 9019
446 9377
446 9464
446 9630
446 9726
447 676
447 752
447 1110
447 1537
447 1550
447 1620
447 2458
447 3051
447 3102
447 3109
447 3304
447 3349
447 3436
447 3629
447 3746
447 3955
447 3981
447 4630
447 6062
447 6291
447 6897
447 7032
447 7107
447 7131
447 7488
447 8336
447 9485
447 9537
447 9656
447 9949
448 541
448 674
448 751
448 761
448 816
448 871
448 922
448 1165
448 1430
448 1997
448 2132
448 2281
448 2448
448 2585
448 2609
448 2759
448 2834
448 3296
448 3321
448 3592
448 3593
448 3716
448 4021
448 4373
448 4416
448 4831
448 4859
448 5441
448 5611
448 5855
448 6227
448 6393
448 6734
448 6786
448 6826
448 7147
448 7317
448 8493
448 8593
448 9560
448 9809
449 486
449 673
449 759
449 908
449 994
449 1003
449 1153
449 1246
449 1285
449 1315
449 1359
449 1432
449 1856
449 1988
449 3184
449 3336
449 3492
449 3805
449 3815
449 3899
449 4196
449 4320
449 4436
449 4469
449 4677
449 4831
449 4976
449 5243
449 5508
449 5560
449 6311
449 6501
449 6518
449 6845
449 7408
449 7577
449 8522
449 8768
449 9259
449 9644
450 490
450 491
450 539
450 621
450 644
450 962
450 1062
450 1079
450 1504
450 1572
450 1694
450 1777
450 1957
450 2054
450 2389
450 2419
450 2791
450 2928
450 3409
450 3492
450 3697
450 3707
450 4022
450 4239
450 4645
450 4783
450 4904
450 5014
450 5443
450 5816
450 6231
450 6624
450 7116
450 7137
450 7785
450 7811
450 8251
450 9885
451 523
451 566
451 591
451 719
451 801
451 925
451 1014
451 1129
451 1190
451 1264
451 1647
451 1730
451 1893
451 1988
451 2027
451 2073
451 2180
451 2682
451 3012
451 3781
451 3837
451 3867
451 4105
451 4279
451 4662
451 4719
451 4954
451 5146
451 5409
451 5648
451 5871
451 6044
451 6592
451 7106
451 7972
451 8432
451 8441
451 9386
451 9389
451 9455
452 489
452 547
452 565
452 687
452 745
452 756
452 1109
452 1121
452 1270
452 1314
452 1366
452 1942
452 2349
452 2921
452 3278
452 3655
452 4631
452 5619
452 5811
452 6112
452 6546
452 7186
452 7211
452 7346
452 7646
452 8498
452 8570
452 9486
452 9973
453 545
453 589
453 810
453 866
453 1302
453 1413
453 1542
453 1608
453 1650
453 1710
453 2104
453 2192
453 2569
453 2686
453 2890
453 2942
453 2961
453 3009
453 3203
453 3611
453 3730
453 3745
453 3810
453 3824
453 4321
453 4323
453 4395
453 4600
453 4645
453 4664
453 4715
453 4740
453 5001
453 5045
453 5230
453 5309
453 5347
453 5496
453 5875
453 5918
453 5939
453 6437
453 6496
453 6649
453 6719
453 7228
453 7492
453 7788
453 8599
453 8780
453 8807
453 9004
453 9223
453 9324
453 9384
453 9606
453 9816
453 9930
454 486
454 577
454 587
454 770
454 839
454 851
454 909
454 921
454 1028
454 1152
454 1224
454 1325
454 1597
454 1686
454 1919
454 1951
454 2090
454 2410
454 2412
454 2480
454 2493
454 2501
454 2541
454 2576
454 2942
454 2957
454 3015
454 3144
454 3250
454 3288
454 3958
454 3963
454 3976
454 4640
454 4809
454 5094
454 5210
454 5291
454 5802
454 6208
454 6285
454 6340
454 6590
454 7082
454 7127
454 7318
454 7475
454 7639
454 8211
454 8494
454 8829
454 9420
455 511
455 528
455 2112
455 2204
455 2225
455 2246
455 2290
455 2316
455 2680
455 2715
455 3190
455 3601
455 4238
455 4261
455 4347
455 4497
455 5371
455 5816
455 5866
455 7075
455 8005
455 8246
455 8432
455 9187
455 9743
456 602
456 709
456 838
456 874
456 901
456 1058
456 1185
456 1242
456 1280
456 1499
456 1549
456 1574
456 1626
456 1775
456 1849
456 2112
456 2405
456 2419
456 2961
456 3226
456 3301
456 3313
456 3592
456 3630
456 4053
456 4278
456 4550
456 4745
456 5258
456 5264
456 5326
456 6160
456 6308
456 6485
456 6506
456 6813
456 7289
456 7376
456 7498
456 7817
456 8292
456 8679
456 8782
456 8988
457 482
457 621
457 648
457 717
457 833
457 868
457 940
457 965
457 1032
457 1110
457 1227
457 2194
457 2210
457 2334
457 2351
457 2670
457 2974
457 3091
457 3144
457 3205
457 3275
457 3282
457 3335
457 3451
457 3574
457 3753
457 3794
457 3807
457 4032
457 4356
457 4396
457 4459
457 4728
457 4811
457 4815
457 5024
457 5041
457 5109
457 5476
457 5493
457 5857
457 6117
457 6175
457 6617
457 6845
457 6936
457 7221
457 7572
457 7620
457 7828
457 8322
457 8832
457 8869
457 8982
457 9116
457 9259
457 9593
457 9991
458 470
458 476
458 497
458 698
458 737
458 868
458 883
458 976
458 1026
458 1138
458 1214
458 1297
458 1410
458 1493
458 1624
458 1921
458 1927
458 1949
458 2106
458 2346
458 2500
458 2510
458 2671
458 2695
458 2745
458 3472
458 3813
458 3935
458 3971
458 4397
458 4872
458 4876
458 5240
458 5858
458 5998
458 6363
458 6424
458 6913
458 7228
458 8410
458 8432
458 8456
458 8788
458 8923
458 9114
458 9490
458 9588
458 9686
459 468
459 499
459 615
459 622
459 707
459 780
459 878
459 903
459 1009
459 1260
459 1374
459 1466
459 1520
459 1650
459 1834
459 2030
459 2237
459 2286
459 2514
459 2532
459 2798
459 2886
459 3138
459 3267
459 3613
459 3907
459 4296
459 4444
459 5312
459 5520
459 5534
459 5560
459 5788
459 5842
459 6178
459 6306
459 6594
459 7757
459 8453
459 9008
459 9458
460 466
460 485
460 600
460 601
460 603
460 651
460 662
460 670
460 712
460 1073
460 1094
460 1180
460 1240
460 1323
460 1324
460 1428
460 1436
460 1752
460 1823
460 2075
460 2215
460 2681
460 2932
460 2956
460 3020
460 3403
460 3438
460 3487
460 3574
460 3850
460 4128
460 4270
460 5833
460 6050
460 6131
460 6228
460 6267
460 6395
460 6535
460 6590
460 7343
460 7790
460 8468
460 8673
460 8676
460 9025
460 9027
460 9034
460 9298
460 9378
460 9453
460 9696
461 504
461 506
461 591
461 828
461 1116
461 1526
461 2262
461 2752
461 2936
461 3476
461 4412
461 4624
461 4910
461 6301
461 7025
461 7446
461 7705
462 786
462 811
462 1008
462 1298
462 1378
462 1395
462 2077
462 2096
462 2138
462 2153
462 2302
462 3140
462 4188
462 4265
462 5004
462 5186
462 5275
462 5389
462 5909
462 6018
462 6647
462 6847
462 7100
462 7373
462 7739
462 8231
462 8413
462 8550
462 8799
462 9294
462 9301
463 605
463 1327
463 1548
463 1641
463 1701
463 2018
463 2230
463 2356
463 3289
463 3336
463 3437
463 3711
463 3860
463 3914
463 4563
463 5491
463 5616
463 6651
463 6951
463 7465
463 8309
463 9210
464 497
464 529
464 552
464 629
464 660
464 674
464 701
464 762
464 775
464 918
464 1249
464 1488
464 1601
464 1753
464 2048
464 2107
464 2376
464 2464
464 2651
464 2891
464 3090
464 3253
464 3266
464 3269
464 3620
464 3763
464 3800
464 4817
464 4890
464 4914
464 6147
464 6189
464 6202
464 6333
464 6483
464 6713
464 6719
464 6829
464 6977
464 7105
464 7283
464 7354
464 7363
464 7415
464 7574
464 7633
464 8821
464 8885
464 9044
464 9462
465 483
465 605
465 696
465 729
465 1045
465 1258
465 1409
465 1579
465 1594
465 1742
465 2058
465 2382
465 3154
465 5105
465 5353
465 6064
465 6074
465 6526
465 7257
465 7615
465 7750
465 7864
465 8719
465 9722
465 9786
466 528
466 555
466 634
466 644
466 657
466 669
466 773
466 855
466 906
466 953
466 1108
466 1411
466 1562
466 1762
466 1777
466 2275
466 2379
466 3139
466 3190
466 3578
466 4503
466 4610
466 4625
466 5127
466 5930
466 6577
466 6909
466 7045
466 7600
466 7666
466 7723
466 9824
467 538
467 587
467 689
467 792
467 800
467 967
467 1071
467 1406
467 1555
467 1842
467 1948
467 1967
467 1972
467 2029
467 2030
467 2110
467 2770
467 3183
467 3481
467 3867
467 4126
467 4138
467 4477
467 4483
467 4636
467 5282
467 5321
467 5472
467 6013
467 6369
467 6534
467 6592
467 6815
467 7009
467 7208
467 7269
467 7437
467 7439
467 8006
467 8266
467 8377
467 8457
467 8469
467 8824
467 9242
467 9903
468 469
468 707
468 1000
468 1203
468 1469
468 1627
468 1787
468 2202
468 2519
468 3176
468 3228
468 3255
468 3359
468 3878
468 3975
468 4051
468 5752
468 6705
468 7021
468 9070
469 480
469 487
469 615
469 687
469 872
469 933
469 973
469 1141
469 1271
469 1373
469 1438
469 1485
469 1552
469 1561
469 1586
469 1674
469 1871
469 1900
469 1979
469 2001
469 2061
469 2076
469 2118
469 2202
469 2218
469 2385
469 2460
469 2723
469 2763
469 2794
469 2820
469 2912
469 3034
469 3064
469 3069
469 3181
469 3219
469 3303
469 3414
469 3472
469 3485
469 3498
469 3556
469 3929
469 4019
469 4069
469 4568
469 4756
469 4757
469 4816
469 4830
469 4852
469 5183
469 5417
469 5553
469 5724
469 6009
469 6063
469 6193
469 6214
469 6303
469 6473
469 6509
469 6557
469 6752
469 7207
469 7225
469 7234
469 7310
469 7613
469 8157
469 8181
469 8263
469 8286
469 8309
469 8644
469 8986
469 9039
469 9806
469 9867
470 477
470 554
470 607
470 660
470 666
470 748
470 818
470 853
470 876
470 966
470 972
470 1064
470 1136
470 1250
470 2115
470 2360
470 3081
470 3123
470 3143
470 3744
470 4237
470 4319
470 4622
470 4711
470 4951
470 5431
470 5485
470 5529
470 5535
470 5667
470 6529
470 6838
470 7673
470 7746
470 8068
470 9399
471 518
471 722
471 848
471 887
471 1010
471 1170
471 1200
471 1216
471 1414
471 1535
471 1731
471 2038
471 2120
471 2242
471 2254
471 2414
471 2462
471 2521
471 3276
471 3781
471 3869
471 3972
471 4189
471 4495
471 4576
471 4691
471 5588
471 6161
471 6690
471 6798
471 7853
471 8414
471 8424
471 9561
472 527
472 611
472 634
472 674
472 925
472 1088
472 1102
472 1120
472 1122
472 1195
472 1229
472 1241
472 1321
472 1389
472 1880
472 1940
472 2015
472 2256
472 2270
472 2328
472 2396
472 2430
472 2523
472 2601
472 3066
472 3307
472 3412
472 3449
472 3547
472 4010
472 4319
472 4446
472 4580
472 4849
472 5213
472 5553
472 5560
472 6334
472 7513
472 7556
472 7765
472 7792
472 8367
472 9269
472 9742
472 9980
473 509
473 741
473 891
473 897
473 904
473 1088
473 1292
473 1302
473 1385
473 1440
473 1502
473 1521
473 1767
473 1774
473 1982
473 2168
473 2244
473 2293
473 2298
473 2378
473 2444
473 2632
473 2686
473 2713
473 2726
473 2827
473 2914
473 3080
473 3174
473 3669
473 3961
473 4306
473 4343
473 4954
473 5039
473 5049
473 5408
473 5455
473 5488
473 5517
473 5860
473 6388
473 6692
473 7299
473 7616
473 7956
473 8131
473 8376
473 8555
473 8874
473 8963
473 9140
473 9374
473 9401
474 499
474 637
474 699
474 751
474 813
474 823
474 851
474 877
474 1231
474 1257
474 1491
474 1552
474 1590
474 1609
474 1775
474 1796
474 1863
474 2039
474 2119
474 2448
474 2509
474 2764
474 2842
474 2977
474 3345
474 3523
474 3727
474 3826
474 3894
474 3946
474 4047
474 4266
474 4430
474 4713
474 5027
474 5083
474 5226
474 5389
474 5683
474 5879
474 6025
474 6301
474 6807
474 6941
474 6966
474 7345
474 7620
474 7942
474 8080
474 8800
474 9249
474 9279
474 9424
474 9427
474 9756
475 784
475 902
475 1228
475 1262
475 1447
475 1467
475 1628
475 1762
475 1876
475 2057
475 2339
475 2437
475 3012
475 3084
475 3119
475 3430
475 3460
475 3876
475 4441
475 4721
475 4805
475 4815
475 5269
475 5890
475 5924
475 6817
475 7822
475 7853
475 8209
475 8810
475 8877
475 9122
475 9807
476 598
476 906
476 1130
476 1226
476 1410
476 1526
476 1549
476 1676
476 2019
476 2091
476 2586
476 3058
476 3666
476 3829
476 4562
476 5228
476 5455
476 5609
476 5708
476 5743
476 5800
476 6054
476 6228
476 6238
476 6348
476 6491
476 7593
476 8106
476 8220
476 9227
477 594
477 676
477 958
477 963
477 1050
477 1723
477 1766
477 2489
477 2570
477 3136
477 3469
477 4794
477 5390
477 5440
477 6065
478 517
478 643
478 660
478 1338
478 1773
478 3152
478 5202
478 5238
478 6656
478 8686
478 9266
478 9630
478 9825
479 516
479 543
479 790
479 823
479 932
479 1116
479 1169
479 1186
479 1193
479 1205
479 1726
479 2242
479 2646
479 2943
479 2948
479 3404
479 3652
479 4088
479 4543
479 4886
479 5696
479 5796
479 6047
479 6049
479 7173
479 7367
479 7501
479 8051
479 8117
479 8702
479 9413
479 9643
479 9951
480 537
480 539
480 546
480 695
480 735
480 746
480 749
480 818
480 867
480 911
480 975
480 1297
480 1372
480 1427
480 1519
480 1560
480 1566
480 1679
480 1773
480 1807
480 1814
480 2028
480 2046
480 2435
480 2898
480 2969
480 3021
480 3085
480 3630
480 3721
480 3741
480 3760
480 4008
480 4638
480 4841
480 4883
480 5058
480 5187
480 5278
480 5511
480 5740
480 5981
480 6056
480 6245
480 6858
480 7539
480 7913
480 8171
480 8458
480 8723
480 8961
480 9313
480 9378
480 9977
481 524
481 551
481 556
481 616
481 765
481 890
481 923
481 1024
481 1286
481 1345
481 1405
481 1410
481 1551
481 1731
481 1756
481 1858
481 1876
481 1961
481 2014
481 2148
481 2266
481 2277
481 2328
481 2504
481 2602
481 2737
481 2750
481 2765
481 2996
481 3069
481 3254
481 3275
481 3384
481 3396
481 3504
481 3540
481 3588
481 3637
481 3738
481 3759
481 3802
481 4413
481 4503
481 4923
481 4939
481 5072
481 5203
481 5405
481 5813
481 5821
481 5943
481 6072
481 6630
481 6866
481 7123
481 7266
481 7409
481 7750
481 8462
481 8718
481 9124
481 9293
482 556
482 831
482 1046
482 1300
482 1411
482 1435
482 1503
482 1565
482 1584
482 1585
482 1659
482 1699
482 2005
482 2439
482 2588
482 2604
482 2650
482 2706
482 2712
482 3071
482 3371
482 3467
482 4399
482 5204
482 5385
482 5565
482 5571
482 5832
482 5879
482 6200
482 6242
482 6316
482 7800
482 7918
482 8197
482 8370
482 8614
482 8754
482 9440
483 658
483 722
483 786
483 965
483 1403
483 1851
483 2172
483 2516
483 3817
483 4070
483 4533
483 4864
483 5396
483 5488
483 5650
483 6028
483 6702
483 7285
483 8259
483 9513
483 9947
484 719
484 759
484 779
484 789
484 838
484 1150
484 1228
484 1301
484 1344
484 1445
484 1722
484 2207
484 2304
484 2309
484 2462
484 2918
484 3358
484 3753
484 4410
484 5491
484 6010
484 6112
484 6164
484 6806
484 8089
484 8508
484 8833
484 8975
485 500
485 548
485 630
485 633
485 703
485 1212
485 1424
485 1665
485 1916
485 2013
485 2024
485 2109
485 2360
485 2692
485 2789
485 2853
485 2927
485 3297
485 3357
485 3663
485 3673
485 3717
485 3817
485 4101
485 4416
485 4478
485 4479
485 4634
485 4772
485 5510
485 5744
485 6519
485 6788
485 6837
485 7498
485 7562
485 7650
485 8044
485 8067
485 8359
485 8486
485 8565
485 9495
485 9517
485 9617
485 9889
486 505
486 606
486 713
486 734
486 767
486 833
486 842
486 989
486 1019
486 1080
486 1089
486 1137
486 1199
486 1280
486 1287
486 1386
486 1418
486 1430
486 1432
486 1434
486 1672
486 1832
486 1847
486 1870
486 1871
486 1947
486 2175
486 2271
486 2351
486 2374
486 2486
486 2589
486 2741
486 2839
486 2923
486 3054
486 3187
486 3410
486 3638
486 3721
486 4038
486 4061
486 4360
486 4534
486 4719
486 4887
486 5099
486 5192
486 5310
486 5595
486 5823
486 5862
486 5942
486 6313
486 7326
486 7390
486 7763
486 7885
486 7938
486 8588
486 8853
486 9219
486 9342
486 9547
486 9626
486 9684
486 9980
487 537
487 623
487 826
487 838
487 857
487 902
487 1085
487 1480
487 1492
487 1505
487 1690
487 1733
487 1914
487 2284
487 2556
487 2594
487 3576
487 5064
487 5595
487 6873
487 7233
487 9515
488 502
488 582
488 735
488 930
488 1425
488 1588
488 1774
488 1797
488 1828
488 2398
488 2756
488 4030
488 4299
488 4361
488 4393
488 4799
488 4984
488 4997
488 5244
488 6460
488 6779
488 7911
488 8133
488 8443
488 8865
488 9200
488 9382
489 494
489 527
489 647
489 1361
489 1578
489 1839
489 3329
489 4343
489 4428
489 4527
489 4895
489 6768
489 6923
489 8102
489 8354
489 8655
489 9292
490 540
490 560
490 752
490 858
490 903
490 924
490 989
490 1102
490 1124
490 1254
490 1313
490 1401
490 1407
490 1742
490 2665
490 2846
490 2930
490 3049
490 3069
490 3255
490 3673
490 4689
490 4759
490 5134
490 5181
490 5439
490 5821
490 6068
490 7355
490 7552
490 8206
490 8493
490 8595
490 8733
490 9122
490 9134
490 9523
490 9616
490 9922
491 949
491 1000
491 1032
491 1069
491 1281
491 1386
491 1595
491 1936
491 2213
491 2279
491 3045
491 3450
491 3755
491 5036
491 5893
491 7884
491 8363
491 8406
491 8562
491 8569
491 8732
491 9508
492 524
492 1008
492 1180
492 1301
492 1622
492 1825
492 2197
492 2345
492 2697
492 2856
492 2971
492 3000
492 3090
492 3350
492 3665
492 3704
492 3805
492 4232
492 4680
492 5165
492 5749
492 6005
492 6988
492 7046
492 7075
492 7239
492 7544
492 7557
492 7634
492 8602
492 9003
492 9155
493 516
493 520
493 594
493 649
493 697
493 1038
493 1085
493 1554
493 1584
493 1626
493 1714
493 1760
493 1777
493 1803
493 1808
493 1895
493 2285
493 2338
493 2343
493 2459
493 2498
493 3373
493 3686
493 3737
493 3994
493 4068
493 4339
493 4519
493 4610
493 4671
493 4689
493 4944
493 5036
493 5067
493 5943
493 5982
493 6317
493 6541
493 6642
493 6845
493 7312
493 7772
493 8070
493 8199
493 8287
493 8427
493 8607
493 9000
493 9665
494 726
494 787
494 789
494 936
494 1374
494 1697
494 1883
494 1972
494 2000
494 2718
494 2843
494 4379
494 4395
494 4544
494 4641
494 5251
494 5252
494 5382
494 5469
494 5808
494 6996
494 7097
494 8032
494 8432
494 8444
494 8524
494 8916
494 9013
494 9346
494 9348
494 9385
494 9567
495 689
495 756
495 765
495 779
495 802
495 947
495 1044
495 1153
495 1332
495 1362
495 1757
495 1845
495 1900
495 1964
495 2057
495 2415
495 2550
495 2636
495 2756
495 3095
495 3391
495 3862
495 4289
495 4949
495 4982
495 5775
495 6376
495 6628
495 6762
495 7083
495 7370
495 7592
495 8757
495 8940
495 9387
495 9449
495 9731
496 618
496 643
496 682
496 739
496 886
496 1295
496 1393
496 2367
496 2968
496 3831
496 3885
496 3897
496 3899
496 4547
496 4871
496 4971
496 5207
496 5274
496 5552
496 5979
496 6472
496 6621
496 6773
496 7051
496 7997
496 8746
496 9147
496 9150
496 9883
497 608
497 612
497 644
497 676
497 728
497 887
497 913
497 1538
497 1706
497 1836
497 2137
497 2652
497 3126
497 3277
497 3570
497 3602
497 3670
497 5470
497 5689
497 6029
497 6544
497 7174
497 7454
497 7619
497 7627
497 7753
497 8035
497 8433
497 8454
497 8744
497 8967
497 9051
497 9167
497 9614
497 9781
497 9907
497 9915
498 520
498 637
498 702
498 1097
498 1126
498 1214
498 1264
498 1306
498 1343
498 1453
498 1700
498 1945
498 2049
498 2106
498 2820
498 2824
498 3221
498 3423
498 3842
498 3874
498 4101
498 4277
498 4291
498 4436
498 4495
498 4581
498 4672
498 4738
498 5067
498 5170
498 5187
498 5504
498 5747
498 5931
498 6022
498 6526
498 6551
498 6602
498 6628
498 6844
498 6961
498 7169
498 7264
498 7369
498 7514
498 7746
498 7827
498 7983
498 7996
498 8064
498 8358
498 8475
498 8533
498 9018
498 9063
498 9352
498 9570
499 566
499 721
499 1525
499 1630
499 1744
499 1763
499 1863
499 1980
499 2287
499 2291
499 2952
499 3022
499 4342
499 4690
499 5099
499 5487
499 5579
499 6129
499 7300
499 7888
499 8595
499 9898
500 518
500 867
500 991
500 1010
500 1015
500 1185
500 1250
500 1461
500 1524
500 1600
500 1609
500 1971
500 2084
500 2447
500 3112
500 3433
500 3841
500 3953
500 4270
500 4876
500 5976
500 6133
500 6161
500 6686
500 6909
500 6934
500 7581
500 7583
500 7960
500 8786
500 8854
500 9341
501 531
501 656
501 713
501 835
501 872
501 1052
501 1062
501 1252
501 1322
501 1425
501 1511
501 1615
501 1685
501 1888
501 1984
501 2116
501 2633
501 3819
501 4071
501 4298
501 4931
501 5188
501 5389
501 5649
501 5772
501 5824
501 6068
501 6073
501 6123
501 6300
501 6516
501 6964
501 7154
501 7269
501 7874
501 8043
501 8366
501 8529
501 9338
502 656
502 882
502 967
502 1102
502 1178
502 1317
502 1368
502 1849
502 2048
502 2153
502 2158
502 2275
502 2395
502 2398
502 2987
502 2988
502 3430
502 3545
502 3623
502 5550
502 5578
502 5637
502 5668
502 5764
502 6069
502 6174
502 6829
502 7352
502 7428
502 8830
502 9525
502 9626
502 9688
503 983
503 1075
503 1147
503 1440
503 1460
503 1516
503 1737
503 1936
503 2360
503 2484
503 2998
503 3165
503 3269
503 3471
503 3667
503 3721
503 4040
503 4183
503 4264
503 4417
503 4498
503 6205
503 6416
503 6530
503 6864
503 6928
503 7242
503 7921
503 7976
503 8289
503 9545
504 513
504 725
504 834
504 869
504 1223
504 1291
504 1306
504 1458
504 1525
504 1544
504 1723
504 1763
504 2110
504 2153
504 2218
504 2230
504 2258
504 2385
504 2436
504 2448
504 2589
504 2943
504 3038
504 3062
504 3177
504 3397
504 3404
504 3635
504 3726
504 4309
504 4611
504 4792
504 5018
504 5405
504 5571
504 5729
504 6278
504 6616
504 7130
504 8190
504 8726
504 9457
504 9659
504 9702
504 9819
505 560
505 632
505 736
505 829
505 866
505 894
505 916
505 922
505 1009
505 1093
505 1271
505 1349
505 1361
505 1474
505 1685
505 1799
505 2167
505 2322
505 2656
505 2891
505 3275
505 3308
505 3389
505 3543
505 3637
505 3704
505 3728
505 4648
505 4702
505 4721
505 4752
505 5067
505 5297
505 5420
505 5493
505 5567
505 5609
505 5638
505 6232
505 6800
505 6973
505 7385
505 7401
505 7860
505 8236
505 8588
505 8984
505 9438
505 9439
505 9627
506 518
506 537
506 545
506 832
506 860
506 949
506 972
506 1050
506 1057
506 1271
506 1304
506 1546
506 1632
506 1646
506 1781
506 1878
506 1879
506 2106
506 2449
506 2553
506 2589
506 2610
506 2842
506 2919
506 3104
506 3320
506 3478
506 3983
506 4043
506 4049
506 4323
506 4655
506 5108
506 5219
506 5861
506 6055
506 6219
506 6373
506 7519
506 8011
506 8249
506 8257
506 8820
506 8831
506 8954
506 9349
507 834
507 926
507 940
507 1327
507 1676
507 1889
507 2173
507 2455
507 2559
507 3224
507 3334
507 3500
507 4686
507 4768
507 5545
507 5565
507 6647
507 7086
507 7816
507 8353
507 9129
508 532
508 665
508 936
508 1140
508 1143
508 1268
508 1362
508 1453
508 1565
508 1604
508 1787
508 1805
508 1859
508 2191
508 2626
508 2637
508 2721
508 2872
508 3447
508 3449
508 3459
508 3556
508 3936
508 3958
508 3964
508 4316
508 4511
508 4539
508 4641
508 4757
508 4882
508 5044
508 5603
508 5698
508 5775
508 5844
508 6306
508 6977
508 7010
508 7052
508 7501
508 7540
508 7687
508 7806
508 7921
508 7934
508 8188
508 8218
508 8448
508 8582
508 8670
508 8908
508 9084
509 718
509 744
509 864
509 949
509 950
509 997
509 1188
509 1308
509 1364
509 1368
509 1644
509 1783
509 1935
509 2345
509 2598
509 2619
509 3625
509 3659
509 3904
509 3922
509 3971
509 4253
509 4383
509 4588
509 4624
509 4716
509 4775
509 4787
509 4945
509 5205
509 5758
509 6327
509 6369
509 6446
509 7471
509 8515
509 9039
509 9205
509 9325
510 642
510 659
510 706
510 756
510 762
510 786
510 852
510 885
510 1014
510 1117
510 1120
510 1180
510 1187
510 1467
510 2063
510 2077
510 2361
510 2499
510 3030
510 3051
510 3263
510 3334
510 3578
510 3792
510 3851
510 3899
510 4557
510 4970
510 6008
510 6012
510 6287
510 6814
510 7521
510 7599
510 8009
510 8239
510 8446
510 8458
511 549
511 559
511 631
511 637
511 768
511 798
511 1368
511 1384
511 1498
511 1508
511 1524
511 1619
511 1725
511 1730
511 1865
511 1897
511 1969
511 2064
511 2144
511 2653
511 2969
511 3299
511 3331
511 3464
511 5532
511 5955
511 5957
511 6181
511 6569
511 7483
511 8495
511 8826
511 9053
511 9133
512 533
512 545
512 558
512 746
512 938
512 959
512 1223
512 1317
512 1376
512 1385
512 1522
512 2465
512 2591
512 2676
512 3141
512 3284
512 4651
512 4870
512 4982
512 5096
512 5284
512 5464
512 5857
512 6157
512 7257
512 7647
512 7893
512 8502
512 8546
512 8759
512 8900
512 9245
512 9717
513 522
513 534
513 843
513 1141
513 1166
513 1231
513 1486
513 1516
513 1677
513 1853
513 1880
513 1960
513 2137
513 2257
513 2310
513 3102
513 3431
513 3432
513 3919
513 5216
513 5324
513 5990
513 6088
513 6201
513 6258
513 6727
513 6824
513 7279
513 8227
513 9255
513 9511
513 9832
513 9973
514 615
514 618
514 640
514 671
514 690
514 758
514 830
514 880
514 945
514 1061
514 1062
514 1263
514 1536
514 1560
514 1619
514 1751
514 1789
514 1799
514 1885
514 1914
514 2005
514 2104
514 2362
514 2390
514 2429
514 2751
514 2998
514 3023
514 3164
514 3360
514 3450
514 3485
514 3632
514 3712
514 3977
514 4276
514 4370
514 4449
514 4534
514 5161
514 5180
514 5241
514 5643
514 5788
514 6133
514 6289
514 6650
514 6772
514 7189
514 7223
514 7266
514 7434
514 7663
514 7681
514 7910
514 8086
514 8095
514 8426
514 8562
514 8579
514 9069
514 9232
514 9436
514 9458
514 9571
515 825
515 989
515 1194
515 1610
515 1883
515 2362
515 2526
515 2878
515 3467
515 3483
515 3730
515 4319
515 4589
515 4794
515 4860
515 5188
515 5404
515 5475
515 5751
515 6124
515 6273
515 6396
515 6924
515 7540
515 8155
515 8384
515 8473
515 8814
515 8912
515 9144
515 9563
515 9666
515 9884
516 544
516 584
516 727
516 760
516 816
516 881
516 1025
516 1031
516 1127
516 1298
516 1514
516 1593
516 1706
516 1770
516 1858
516 2035
516 2097
516 2301
516 2683
516 2773
516 2927
516 2976
516 3065
516 3104
516 3596
516 3639
516 3672
516 3810
516 4026
516 4212
516 5021
516 5246
516 5285
516 6933
516 7452
516 8423
516 8894
516 8943
516 9855
516 9909
517 590
517 657
517 1021
517 1691
517 1783
517 2016
517 2214
517 2475
517 3229
517 3312
517 3348
517 4443
517 4504
517 4540
517 4572
517 4579
517 4706
517 4727
517 5275
517 5683
517 6890
517 7034
517 8885
517 9353
517 9702
517 9847
517 9940
518 620
518 697
518 806
518 874
518 949
518 1069
518 1135
518 1364
518 1449
518 1481
518 1498
518 1687
518 1708
518 1751
518 1895
518 2063
518 2094
518 2209
518 3071
518 3364
518 4033
518 4546
518 4557
518 6275
518 6376
518 6446
518 7233
518 7422
518 8102
518 8278
518 8688
518 8705
518 8813
518 8945
518 9075
518 9202
519 988
519 1493
519 1526
519 1647
519 1772
519 1810
519 1838
519 1881
519 1911
519 2016
519 2146
519 2304
519 2430
519 2541
519 2676
519 3062
519 3230
519 3342
519 3486
519 3527
519 3696
519 4007
519 4160
519 4374
519 4507
519 4978
519 5097
519 5306
519 5317
519 5624
519 5739
519 5770
519 6042
519 6146
519 6348
519 6377
519 6492
519 6788
519 6861
519 7822
519 8845
519 9955
520 618
520 665
520 713
520 987
520 1251
520 1275
520 1464
520 1475
520 1486
520 1507
520 1717
520 1737
520 1776
520 1862
520 2080
520 2124
520 3198
520 3389
520 4021
520 4385
520 4832
520 4980
520 5068
520 5249
520 5330
520 5380
520 5657
520 6115
520 6260
520 6954
520 7386
520 7592
520 7664
520 7748
520 8065
520 8923
521 860
521 939
521 1346
521 1752
521 2027
521 2052
521 2120
521 2865
521 3519
521 3935
521 4116
521 4303
521 4327
521 5117
521 5784
521 5979
521 6464
521 6506
521 6516
521 6680
521 6964
521 7473
522 629
522 897
522 1012
522 1103
522 1387
522 1455
522 1506
522 1684
522 1839
522 1897
522 2068
522 2073
522 2340
522 2694
522 2990
522 3147
522 3413
522 3730
522 4259
522 4607
522 4748
522 5033
522 6462
522 6478
522 6724
522 6744
522 6832
522 6888
522 7643
522 7992
522 8317
522 8888
522 9485
522 9705
522 9892
523 672
523 772
523 796
523 809
523 819
523 936
523 1202
523 1206
523 1243
523 1639
523 1736
523 1784
523 2025
523 2056
523 2206
523 2476
523 2598
523 2705
523 2710
523 2934
523 3383
523 3413
523 4149
523 4361
523 4435
523 4913
523 5000
523 5191
523 5221
523 5407
523 5417
523 5499
523 6055
523 6116
523 6147
523 6278
523 6490
523 7019
523 7060
523 7307
523 8087
523 8270
523 8300
523 8344
523 8362
523 8373
523 8698
523 9274
523 9346
523 9422
523 9568
523 9965
524 657
524 849
524 1100
524 1358
524 1378
524 1487
524 1591
524 1896
524 2219
524 2454
524 2517
524 2786
524 2933
524 3198
524 3498
524 3627
524 3857
524 4026
524 4490
524 4666
524 4966
524 5371
524 5794
524 5874
524 6006
524 6099
524 6772
524 6985
524 7098
524 7595
524 8171
524 8227
524 8965
524 9070
524 9643
525 555
525 689
525 722
525 935
525 1231
525 1393
525 1418
525 1845
525 1892
525 1945
525 1961
525 2110
525 2151
525 2336
525 2601
525 2920
525 3165
525 3379
525 3485
525 3486
525 3666
525 3708
525 3749
525 4365
525 4906
525 5162
525 5222
525 5360
525 5441
525 5738
525 6220
525 6371
525 6743
525 6794
525 7724
525 7783
525 8568
525 8669
525 9644
526 553
526 566
526 625
526 645
526 718
526 754
526 898
526 1415
526 1438
526 1498
526 1556
526 1619
526 1981
526 1989
526 2000
526 2400
526 2448
526 2473
526 2619
526 2811
526 2840
526 3045
526 3136
526 3155
526 3158
526 3697
526 3799
526 3818
526 3846
526 3921
526 4193
526 4260
526 4333
526 4534
526 4678
526 5272
526 5641
526 6314
526 7274
526 7791
526 7908
526 7949
526 7972
526 8051
526 8301
526 8610
526 9151
526 9216
526 9591
526 9681
526 9848
526 9879
526 9884
527 610
527 666
527 752
527 768
527 783
527 904
527 1083
527 1618
527 1698
527 2740
527 2943
527 3118
527 3269
527 4070
527 4453
527 4877
527 4885
527 5354
527 6217
527 7106
527 8083
527 8741
527 8857
527 9311
527 9460
527 9506
528 602
528 796
528 865
528 879
528 1213
528 1219
528 1475
528 1489
528 1741
528 1765
528 1776
528 1986
528 2050
528 2150
528 2242
528 2374
528 2478
528 2766
528 3149
528 3190
528 3822
528 4462
528 4532
528 4636
528 4878
528 5038
528 5135
528 5210
528 5599
528 5653
528 5859
528 6046
528 6202
528 6594
528 6878
528 7210
528 7380
528 8197
528 8256
528 8383
528 8535
528 8718
528 8947
528 9069
528 9237
528 9648
528 9753
528 9755
528 9843
529 882
529 896
529 957
529 1151
529 1210
529 1263
529 1381
529 1767
529 1938
529 1983
529 2124
529 2147
529 2383
529 2440
529 2810
529 2971
529 3227
529 3628
529 3655
529 4432
529 4434
529 5265
529 5581
529 5712
529 6027
529 6061
529 6074
529 6379
529 6446
529 6531
529 6657
529 7327
529 7404
529 8002
529 8160
529 8912
529 9034
529 9168
529 9522
529 9556
529 9932
530 531
530 566
530 866
530 999
530 1022
530 1041
530 1103
530 1259
530 1463
530 1507
530 1550
530 1563
530 1719
530 2174
530 2189
530 2239
530 2310
530 2388
530 2794
530 2930
530 3041
530 3100
530 3323
530 3406
530 3470
530 3682
530 3692
530 3792
530 3934
530 3981
530 4173
530 4199
530 4389
530 4470
530 4624
530 4876
530 4898
530 4982
530 5069
530 5198
530 5207
530 5278
530 5295
530 5528
530 5797
530 5803
530 5906
530 6461
530 6592
530 6797
530 7381
530 7494
530 7610
530 8190
530 8281
530 8500
530 8545
530 8664
530 8667
530 8782
530 8805
530 8923
530 8932
530 9067
530 9099
530 9111
530 9360
530 9550
530 9733
531 573
531 636
531 923
531 962
531 968
531 1256
531 1408
531 1520
531 1633
531 1688
531 1887
531 1969
531 1972
531 2046
531 2304
531 3043
531 3160
531 3523
531 4735
531 5528
531 5762
531 6207
531 6230
531 6649
531 7156
531 7163
531 7360
531 7769
531 7882
531 8034
531 8129
531 8184
531 8646
531 8974
531 9647
532 589
532 739
532 786
532 1290
532 1529
532 1611
532 1621
532 1794
532 2264
532 2418
532 2586
532 2641
532 2814
532 3354
532 3615
532 3641
532 3845
532 4769
532 5501
532 5784
532 8366
533 567
533 837
533 1082
533 1553
533 1740
533 1766
533 1788
533 2165
533 2546
533 2641
533 2737
533 2889
533 2990
533 3871
533 4309
533 4596
533 8631
533 9128
533 9260
533 9808
534 558
534 669
534 748
534 956
534 978
534 1084
534 1174
534 1203
534 1212
534 1508
534 1714
534 1829
534 1911
534 1963
534 2088
534 2182
534 2666
534 2741
534 3030
534 3089
534 3221
534 4113
534 4541
534 4909
534 5451
534 5704
534 5817
534 6367
534 6656
534 6846
534 6873
534 7404
534 7598
534 7973
534 8108
534 8424
534 8804
534 9062
534 9634
535 594
535 1195
535 1376
535 1769
535 1846
535 1941
535 3195
535 3382
535 3736
535 4250
535 4560
535 5254
535 5577
535 5773
535 5812
535 5997
535 7114
535 7186
535 8147
535 8345
535 9081
535 9537
535 9691
536 968
536 1047
536 1142
536 1257
536 1453
536 1557
536 1648
536 2153
536 2284
536 2706
536 2850
536 2858
536 3257
536 3486
536 4414
536 4460
536 4540
536 4586
536 4650
536 4993
536 6190
536 7592
536 7843
536 8864
536 9037
536 9434
536 9644
537 692
537 1072
537 1726
537 2392
537 2669
537 3411
537 3481
537 3630
537 4617
537 5839
537 5941
537 6031
537 6264
537 6305
537 7797
537 8145
537 8964
537 9302
537 9433
537 9460
537 9986
538 672
538 745
538 839
538 1036
538 1254
538 1266
538 1408
538 1560
538 1572
538 1721
538 1885
538 2297
538 2361
538 2469
538 3228
538 3544
538 3882
538 3932
538 3989
538 3992
538 4248
538 4306
538 4358
538 4403
538 4892
538 5786
538 5811
538 5838
538 6089
538 6671
538 6874
538 7487
538 8509
538 8663
538 8896
538 9018
538 9824
538 9884
539 893
539 1038
539 1088
539 1431
539 1473
539 1714
539 2757
539 3004
539 3382
539 4061
539 4215
539 4587
539 4675
539 5676
539 6592
539 7278
539 8031
539 8538
539 8763
539 8770
540 741
540 753
540 793
540 800
540 981
540 1332
540 1365
540 1531
540 1625
540 1701
540 1823
540 1953
540 2121
540 2255
540 2311
540 2417
540 2479
540 2505
540 2624
540 2713
540 2946
540 3124
540 3399
540 3416
540 4341
540 4400
540 4450
540 4658
540 5050
540 5351
540 5823
540 5958
540 6602
540 6993
540 7681
540 7758
540 7933
540 8146
540 8289
540 8332
540 8558
540 9064
540 9459
541 557
541 625
541 802
541 1068
541 1156
541 1157
541 1207
541 1271
541 1538
541 1551
541 1629
541 1668
541 1767
541 1914
541 1991
541 2029
541 2314
541 2688
541 2755
541 2864
541 3056
541 3136
541 3357
541 3532
541 3907
541 3915
541 3928
541 4085
541 4341
541 4376
541 4407
541 4889
541 5111
541 5308
541 5419
541 5477
541 5560
541 5618
541 5674
541 6727
541 7000
541 7170
541 7546
541 7629
541 7901
541 8056
541 8241
541 8521
541 8607
541 8669
541 8799
541 8901
541 9039
541 9245
541 9408
541 9831
541 9921
541 9929
542 952
542 959
542 1097
542 1283
542 1299
542 1392
542 1568
542 1831
542 2035
542 2059
542 2303
542 2487
542 2533
542 2768
542 2785
542 2869
542 3696
542 4494
542 5039
542 5153
542 5707
542 5965
542 7494
542 8092
542 8615
542 9832
543 769
543 1384
543 1616
543 1623
543 1652
543 1778
543 2247
543 2772
543 2835
543 3598
543 4425
543 4652
543 5074
543 6477
543 6617
543 6813
543 6850
543 7678
543 7955
543 8187
543 8748
543 9385
543 9786
544 560
544 610
544 632
544 680
544 747
544 751
544 1013
544 1077
544 1741
544 2169
544 2411
544 2464
544 2654
544 2672
544 2755
544 2894
544 3742
544 4073
544 5028
544 5229
544 6626
544 7146
544 8599
544 9170
544 9796
544 9014
545 758
545 760
545 857
545 897
545 1030
545 1036
545 1159
545 1260
545 1417
545 1474
545 1521
545 1638
545 2043
545 2191
545 2438
545 2444
545 2517
545 2593
545 2648
545 2704
545 3049
545 3407
545 3409
545 3618
545 3805
545 3959
545 4174
545 4347
545 4358
545 4387
545 4538
545 4562
545 5020
545 5527
545 5672
545 5683
545 6404
545 6460
545 6638
545 6979
545 7158
545 7457
545 7676
545 8351
545 8979
545 9080
545 9525
545 9753
546 618
546 886
546 1000
546 1247
546 1454
546 1598
546 2351
546 2443
546 2845
546 2972
546 3303
546 3738
546 3840
546 3875
546 4018
546 4034
546 4220
546 4609
546 5773
546 6588
546 6636
546 6866
546 6967
546 7400
546 7586
546 8214
546 8627
546 9217
547 634
547 723
547 739
547 740
547 850
547 985
547 1787
547 1899
547 1911
547 2197
547 2638
547 3462
547 3496
547 3509
547 4397
547 4650
547 5006
547 5261
547 6008
547 6374
547 6654
547 6796
547 7259
547 7368
547 7898
547 8026
547 8531
547 9419
547 9709
547 9975
548 594
548 601
548 690
548 712
548 787
548 916
548 1017
548 1023
548 1045
548 1210
548 1256
548 1392
548 1552
548 1820
548 1935
548 2062
548 2100
548 2156
548 2349
548 2575
548 2728
548 3179
548 3548
548 4011
548 4017
548 4072
548 4352
548 5143
548 6861
548 7009
548 7101
548 7153
548 7310
548 8112
548 8226
548 9402
548 9508
548 9546
549 592
549 683
549 726
549 795
549 877
549 904
549 1110
549 1268
549 1597
549 1636
549 1747
549 1806
549 1829
549 2487
549 3046
549 3235
549 3238
549 3349
549 3503
549 3659
549 3704
549 4221
549 4599
549 4715
549 5500
549 5580
549 5626
549 6006
549 6099
549 6139
549 7531
549 7780
549 7915
549 8207
549 8262
549 9336
550 625
550 703
550 1101
550 1462
550 1470
550 1582
550 2088
550 2372
550 2377
550 2578
550 3645
550 3984
550 4959
550 4976
550 5044
550 5309
550 5536
550 5791
550 6272
550 6387
550 6656
550 6884
550 6979
550 7168
550 9844
551 1584
551 1793
551 2157
551 2512
551 2973
551 3141
551 3595
551 4211
551 5538
551 8591
552 700
552 709
552 991
552 1046
552 1131
552 1144
552 1196
552 1260
552 1298
552 1315
552 1574
552 1671
552 1678
552 1738
552 1847
552 1879
552 1999
552 2011
552 2171
552 2198
552 2404
552 2571
552 2601
552 2679
552 2764
552 2854
552 3099
552 3318
552 3392
552 3393
552 3476
552 3539
552 3557
552 3956
552 4085
552 4200
552 4687
552 5075
552 5181
552 5697
552 6199
552 6284
552 6850
552 7189
552 7285
552 7835
552 8472
552 8622
552 8629
552 8913
552 9293
553 565
553 623
553 718
553 1167
553 1415
553 1546
553 1872
553 2748
553 2776
553 3076
553 3329
553 3896
553 4584
553 5567
553 5704
553 6879
553 6925
553 7022
553 7526
553 7875
553 8362
553 8556
553 9258
553 9605
553 9948
554 600
554 693
554 1450
554 1960
554 2443
554 2515
554 2744
554 2767
554 3292
554 5209
554 5356
554 5831
554 6646
554 6668
554 7896
554 8279
554 8521
555 579
555 817
555 1054
555 1086
555 1514
555 1634
555 2095
555 2518
555 2620
555 3053
555 3639
555 3760
555 3837
555 3968
555 4774
555 5189
555 5937
555 6097
555 6751
555 7136
555 7230
555 7341
555 7419
555 7686
555 9222
555 9336
555 9555
555 9562
556 742
556 759
556 920
556 981
556 1009
556 1171
556 1280
556 1293
556 1619
556 1638
556 1746
556 1866
556 2549
556 2583
556 2679
556 2995
556 3519
556 3619
556 3821
556 3927
556 4542
556 5005
556 5099
556 5271
556 5283
556 5288
556 5609
556 5756
556 5947
556 6066
556 6735
556 6887
556 6952
556 7005
556 8030
556 8114
556 8624
556 9016
556 9031
556 9484
556 9588
557 719
557 980
557 1143
557 1152
557 2602
557 2998
557 3213
557 3765
557 3909
557 4914
557 4954
557 5084
557 5201
557 5405
557 5479
557 6482
557 7921
557 8021
557 8148
557 9434
558 700
558 711
558 776
558 852
558 1172
558 1385
558 1532
558 1546
558 1745
558 1916
558 2107
558 2178
558 2292
558 2299
558 2591
558 2733
558 2970
558 3100
558 3124
558 3278
558 3511
558 3563
558 4028
558 4329
558 4357
558 4487
558 4613
558 4726
558 4811
558 5307
558 5383
558 6045
558 6495
558 7027
558 7082
558 7243
558 7279
558 7488
558 7512
558 7641
558 7804
558 8096
558 8634
558 8654
558 9110
558 9347
558 9427
558 9815
558 9872
559 640
559 685
559 690
559 832
559 991
559 1040
559 1178
559 1192
559 1292
559 1466
559 1816
559 2084
559 2220
559 2356
559 2453
559 2646
559 2690
559 2750
559 3234
559 3505
559 3605
559 4035
559 4133
559 4490
559 4743
559 5203
559 5613
559 5865
559 6099
559 6183
559 6752
559 7041
559 7126
559 7559
559 7787
559 8142
559 8646
559 8670
559 8820
559 9762
560 659
560 672
560 1140
560 1369
560 1636
560 2138
560 2302
560 2468
560 2783
560 3471
560 3684
560 4334
560 4579
560 4801
560 5132
560 5355
560 7026
560 7125
560 7372
560 7876
560 8587
560 8845
560 9002
560 9800
561 612
561 806
561 868
561 1402
561 1508
561 1678
561 1787
561 1851
561 1929
561 2575
561 3044
561 3363
561 3882
561 4551
561 5308
561 5323
561 5434
561 5573
561 5911
561 8330
561 8569
561 9246
562 599
562 634
562 799
562 1087
562 1115
562 1185
562 1262
562 1359
562 1536
562 1764
562 1804
562 2037
562 2114
562 2374
562 2427
562 2804
562 3105
562 3200
562 3568
562 3933
562 4165
562 4406
562 4990
562 5205
562 5456
562 5539
562 6090
562 6130
562 6276
562 6373
562 7319
562 7655
562 7672
562 8344
562 8467
562 8527
562 8994
562 9182
562 9298
562 9831
562 9913
563 1123
563 1347
563 1453
563 1511
563 1745
563 1910
563 2320
563 2352
563 2848
563 3595
563 3649
563 4336
563 4442
563 4764
563 5010
563 5074
563 5444
563 6375
563 7241
563 7907
563 8171
563 8643
563 8953
563 9593
563 9821
564 827
564 854
564 1092
564 1595
564 1741
564 1929
564 3210
564 4153
564 4240
564 4358
564 4643
564 5028
564 5682
564 5714
564 5779
564 6251
564 9008
564 9519
565 674
565 733
565 764
565 805
565 874
565 895
565 924
565 1301
565 1329
565 1587
565 2747
565 2785
565 2900
565 3132
565 4049
565 4222
565 4599
565 4796
565 4946
565 5553
565 5566
565 5724
565 6041
565 6457
565 7329
565 8037
565 8496
565 9413
566 705
566 957
566 996
566 1014
566 1432
566 1523
566 1581
566 1643
566 1727
566 1891
566 2141
566 2594
566 3646
566 3899
566 4063
566 4572
566 4900
566 4956
566 4992
566 5200
566 5325
566 5606
566 6009
566 6422
566 6521
566 6938
566 8159
566 8342
566 8434
566 8520
566 8564
566 9527
567 840
567 928
567 1274
567 1394
567 1977
567 2024
567 2083
567 2121
567 2527
567 2538
567 2775
567 2786
567 3177
567 3393
567 3435
567 3735
567 3890
567 3914
567 3941
567 4331
567 4925
567 5018
567 5662
567 5918
567 6202
567 6224
567 6450
567 6749
567 6917
567 7207
567 7375
567 7743
567 8195
567 8426
567 8462
567 8642
567 8986
567 9323
567 9469
567 9616
568 751
568 1370
568 1407
568 1609
568 1672
568 1706
568 1742
568 1761
568 1910
568 2446
568 2652
568 2677
568 3173
568 3705
568 4366
568 4665
568 5310
568 5345
568 5543
568 5847
568 6456
568 6733
568 6862
568 7166
568 7633
568 7908
568 8045
568 8347
568 8751
568 8819
568 9491
568 9804
569 591
569 731
569 805
569 909
569 968
569 990
569 1381
569 1397
569 1980
569 1982
569 2485
569 2590
569 2759
569 3074
569 3126
569 3132
569 3569
569 3613
569 4150
569 4278
569 4403
569 4413
569 4492
569 5151
569 5662
569 5820
569 6080
569 6381
569 6781
569 8812
569 8886
569 9403
569 9745
570 572
570 616
570 628
570 692
570 703
570 798
570 1067
570 1134
570 1184
570 1277
570 1299
570 1503
570 1593
570 1652
570 2094
570 2406
570 2606
570 2678
570 2716
570 2743
570 2869
570 3247
570 3250
570 3833
570 3899
570 3997
570 4046
570 4159
570 4229
570 4522
570 4753
570 4782
570 4790
570 4916
570 5076
570 5180
570 5236
570 5345
570 5369
570 5447
570 5555
570 5596
570 5966
570 6067
570 6207
570 6723
570 6965
570 7479
570 7665
570 8073
570 8148
570 8212
570 8235
570 8908
571 584
571 670
571 674
571 702
571 738
571 989
571 1046
571 1147
571 1245
571 1546
571 1553
571 1937
571 1959
571 1974
571 2363
571 2406
571 2483
571 2626
571 2738
571 2858
571 2925
571 3467
571 3564
571 3823
571 4056
571 4839
571 5103
571 6324
571 6391
571 6429
571 6598
571 6639
571 7034
571 7305
571 8109
571 8657
571 8700
571 8860
571 9302
571 9390
572 682
572 858
572 1293
572 1861
572 1980
572 2246
572 2599
572 2747
572 2778
572 3537
572 4059
572 4145
572 4263
572 4280
572 4917
572 4920
572 5189
572 5247
572 5645
572 6372
572 6428
572 6605
572 6662
572 6664
572 7330
572 7451
572 8606
572 9168
572 9611
572 9844
573 583
573 638
573 936
573 1133
573 1388
573 1591
573 1686
573 1880
573 1956
573 2259
573 2663
573 2783
573 2929
573 3229
573 3343
573 4327
573 4406
573 4417
573 4474
573 4600
573 4879
573 5022
573 5481
573 5505
573 6029
573 6133
573 6395
573 6413
573 6745
573 7490
573 8190
573 8271
573 8324
573 8351
573 8707
573 8874
573 9087
573 9145
573 9462
573 9682
574 586
574 608
574 750
574 824
574 884
574 1177
574 1329
574 1518
574 1657
574 1705
574 1737
574 1828
574 2110
574 2182
574 2219
574 2301
574 2451
574 2591
574 2769
574 2865
574 3286
574 3305
574 3515
574 3781
574 4143
574 5454
574 5884
574 5954
574 6124
574 6894
574 7033
574 7079
574 7161
574 7171
574 7216
574 7239
574 7338
574 7477
574 7596
574 7718
574 8188
574 8352
574 8487
574 8556
574 8722
574 9088
574 9517
575 583
575 716
575 748
575 797
575 937
575 1113
575 1540
575 1556
575 2437
575 2782
575 2785
575 2882
575 3004
575 3339
575 3343
575 3424
575 3513
575 3574
575 3906
575 3909
575 4510
575 4647
575 5047
575 5053
575 5919
575 6389
575 7164
575 7325
575 7480
575 7992
576 649
576 771
576 1264
576 1350
576 1479
576 1687
576 1825
576 2196
576 2455
576 2644
576 2809
576 2890
576 3530
576 3833
576 4213
576 5196
576 5627
576 5682
576 6634
576 7367
576 8039
576 8292
576 9536
576 9603
577 792
577 806
577 817
577 1010
577 1178
577 1362
577 1608
577 2102
577 2401
577 2750
577 3151
577 3152
577 4494
577 4977
577 5060
577 6381
577 6398
577 6902
577 6955
577 7467
577 7647
577 8103
577 8298
577 8319
577 8850
577 9429
577 9623
577 9988
578 698
578 699
578 710
578 1299
578 1636
578 1848
578 1893
578 2070
578 2422
578 2508
578 2678
578 3128
578 3486
578 3597
578 3868
578 4828
578 5385
578 5646
578 6902
578 8584
578 8775
578 9477
578 9803
579 713
579 741
579 846
579 1234
579 1252
579 1286
579 1369
579 1817
579 2017
579 2854
579 3108
579 3152
579 3777
579 3906
579 4051
579 4080
579 4301
579 4507
579 4518
579 4697
579 5068
579 5486
579 6077
579 6162
579 6536
579 7063
579 7148
579 7530
579 7559
579 7717
579 7743
579 8230
579 8411
579 8445
579 8567
579 8573
579 9251
579 9734
580 624
580 791
580 813
580 842
580 1074
580 1087
580 1173
580 2048
580 2146
580 2640
580 2875
580 3259
580 3263
580 3491
580 3543
580 4194
580 4609
580 4958
580 5376
580 5407
580 5531
580 5863
580 5958
580 6249
580 6596
580 7369
580 8433
580 8948
580 8970
581 611
581 614
581 720
581 797
581 836
581 862
581 1112
581 1209
581 1298
581 1328
581 1500
581 1991
581 2360
581 2367
581 3428
581 3754
581 4324
581 4715
581 4724
581 5702
581 5903
581 6430
581 6665
581 6935
581 7366
581 8329
581 9078
581 9132
582 689
582 900
582 1126
582 1313
582 1358
582 1383
582 1451
582 2200
582 2451
582 2650
582 3394
582 3402
582 3724
582 4121
582 4496
582 4699
582 4858
582 4915
582 5278
582 6591
582 8301
582 8347
582 8350
582 8632
582 8692
582 8900
582 9572
582 9702
582 9733
583 942
583 1303
583 1352
583 1652
583 1757
583 1799
583 1863
583 1959
583 2015
583 2216
583 2528
583 2538
583 2568
583 2627
583 2703
583 3020
583 3093
583 3534
583 4094
583 4447
583 4485
583 4572
583 4925
583 5045
583 5071
583 6446
583 6943
583 8432
583 8777
583 8956
583 9559
583 9575
583 9691
583 9798
583 9932
584 585
584 594
584 761
584 900
584 1292
584 1493
584 1906
584 2092
584 2364
584 2510
584 2727
584 3269
584 3738
584 4320
584 4451
584 4498
584 6679
584 6806
584 7163
584 7872
584 8429
584 8625
584 9610
584 9758
585 600
585 608
585 717
585 802
585 830
585 846
585 863
585 966
585 1055
585 1250
585 1973
585 2060
585 2220
585 2244
585 2612
585 2646
585 2730
585 2985
585 3115
585 3624
585 4009
585 4267
585 5122
585 5498
585 7265
585 7899
585 8006
585 8501
585 9072
585 9770
586 643
586 796
586 903
586 1017
586 1103
586 1279
586 1290
586 1342
586 1394
586 1561
586 1859
586 2330
586 2350
586 2555
586 2726
586 2973
586 3135
586 3905
586 4177
586 4371
586 5219
586 5911
586 5962
586 6289
586 6503
586 6946
586 7773
586 8091
586 8365
586 8368
586 8693
586 9658
587 633
587 677
587 822
587 862
587 1139
587 1176
587 1293
587 1435
587 2186
587 2502
587 2546
587 2719
587 2738
587 3467
587 3468
587 3504
587 3522
587 3812
587 4156
587 4319
587 4939
587 5346
587 5679
587 5984
587 6069
587 6248
587 6251
587 7118
587 7487
587 8392
587 9413
588 650
588 769
588 1122
588 1169
588 1203
588 1382
588 1432
588 1819
588 2363
588 2475
588 2643
588 3096
588 3350
588 3487
588 3709
588 3932
588 4091
588 4187
588 4501
588 4531
588 4802
588 5054
588 5323
588 5440
588 5568
588 5596
588 5826
588 6069
588 6572
588 7029
588 7215
588 7444
588 8163
588 8787
588 8838
588 9897
589 749
589 1116
589 1126
589 1130
589 1416
589 1619
589 1706
589 1817
589 2089
589 2193
589 2262
589 2720
589 2877
589 3252
589 3575
589 3597
589 3607
589 3653
589 4519
589 5464
589 5505
589 5854
589 5915
589 6389
589 6563
589 7051
589 7840
589 7892
589 8985
589 9297
589 9309
589 9421
590 941
590 1126
590 1279
590 1372
590 1401
590 1444
590 1744
590 1908
590 2027
590 2043
590 3460
590 3676
590 4089
590 4105
590 4398
590 4609
590 5194
590 5433
590 6149
590 8936
590 8952
591 677
591 692
591 902
591 1403
591 1475
591 1500
591 1706
591 1889
591 2554
591 3156
591 3173
591 3219
591 3475
591 4126
591 4174
591 5079
591 5382
591 5655
591 6292
591 7726
591 7843
591 9198
591 9345
591 9535
592 649
592 1091
592 1125
592 1368
592 1689
592 2063
592 2078
592 2177
592 2543
592 2745
592 3245
592 3991
592 4437
592 5190
592 7136
592 7365
592 8978
592 9172
592 9366
592 9611
593 627
593 649
593 2347
593 2381
593 2437
593 2484
593 2916
593 3097
593 3423
593 3785
593 4039
593 4193
593 4212
593 4251
593 4552
593 4662
593 5819
593 5828
593 6466
593 9134
593 9444
594 682
594 762
594 927
594 1361
594 1537
594 1988
594 2123
594 2207
594 2965
594 3339
594 4690
594 4837
594 5999
594 6512
594 6712
594 7151
594 8033
594 9371
594 9823
595 837
595 863
595 1310
595 1860
595 2365
595 2666
595 2804
595 3345
595 3546
595 3685
595 3905
595 3939
595 4106
595 4306
595 4374
595 5244
595 5258
595 5563
595 5838
595 6387
595 7442
595 7669
595 8183
595 9038
595 9973
596 829
596 1032
596 1238
596 1508
596 2053
596 2462
596 2657
596 2794
596 3887
596 3939
596 4041
596 4103
596 4558
596 4665
596 5043
596 5922
596 7037
596 7595
597 772
597 926
597 1256
597 1377
597 1507
597 1547
597 1700
597 1796
597 1904
597 1956
597 2219
597 2565
597 2691
597 2730
597 2736
597 2901
597 3542
597 3737
597 4096
597 4619
597 5473
597 6500
597 6625
597 6717
597 6844
597 7586
597 7646
597 7838
597 8242
597 8410
597 8601
597 8745
597 8769
597 9641
598 1130
598 1296
598 2290
598 2843
598 3655
598 3953
598 3971
598 7974
598 9937
599 642
599 756
599 783
599 995
599 1260
599 1314
599 1324
599 1369
599 1715
599 1750
599 1765
599 2069
599 2181
599 2861
599 3224
599 3485
599 3799
599 4554
599 5820
599 6598
599 6709
599 6820
599 6944
599 8103
599 8139
599 8347
599 9290
599 9831
599 9928
600 711
600 758
600 779
600 897
600 933
600 984
600 1144
600 1171
600 1736
600 1800
600 2416
600 2462
600 2606
600 2726
600 2733
600 2773
600 2784
600 2897
600 2904
600 3258
600 3262
600 3497
600 3768
600 4166
600 4203
600 7088
600 7224
600 7332
600 7980
600 8175
600 8642
600 9402
600 9665
600 9786
601 647
601 838
601 850
601 943
601 1070
601 1482
601 1552
601 1633
601 1720
601 1901
601 2129
601 2180
601 2235
601 2453
601 3123
601 3494
601 4656
601 4750
601 4764
601 5256
601 6296
601 6301
601 7305
601 7408
601 7923
601 8107
601 8913
601 8965
601 9058
601 9467
601 9478
601 9617
601 9756
602 607
602 836
602 930
602 934
602 961
602 1028
602 1179
602 1325
602 1332
602 1375
602 1394
602 1675
602 1792
602 1947
602 1948
602 2181
602 2295
602 2340
602 2461
602 2519
602 2586
602 2725
602 2992
602 3390
602 3535
602 3874
602 4137
602 4463
602 4668
602 4775
602 5122
602 5168
602 5602
602 5664
602 5828
602 5971
602 5992
602 6101
602 6256
602 6519
602 6795
602 7033
602 7372
602 7797
602 7983
602 8300
602 8454
602 8931
602 9642
603 674
603 681
603 839
603 1180
603 1394
603 1523
603 1700
603 1816
603 2034
603 2417
603 2480
603 2649
603 2706
603 2942
603 3085
603 3308
603 3648
603 3752
603 3789
603 4010
603 4024
603 4307
603 4351
603 4362
603 4450
603 4533
603 4710
603 5099
603 5185
603 5319
603 5390
603 5489
603 5812
603 5818
603 5843
603 6943
603 7424
603 8275
603 8573
603 8688
603 8710
603 8854
604 729
604 880
604 881
604 972
604 1321
604 1788
604 2163
604 2447
604 2530
604 2773
604 2793
604 3148
604 3182
604 3265
604 3398
604 3428
604 4597
604 4627
604 4981
604 5120
604 5131
604 5198
604 5537
604 5609
604 5695
604 5732
604 5930
604 6503
604 6881
604 7230
604 7707
604 8186
604 8286
604 8914
604 9659
605 635
605 722
605 833
605 853
605 931
605 1064
605 1101
605 1141
605 1143
605 1204
605 1276
605 1454
605 1500
605 1596
605 1694
605 1705
605 1743
605 2011
605 2093
605 2199
605 2392
605 2438
605 2668
605 2717
605 2826
605 3047
605 3109
605 3432
605 3815
605 4117
605 4171
605 5138
605 5219
605 6007
605 6173
605 6234
605 6618
605 6848
605 7073
605 7131
605 7237
605 7434
605 7490
605 7747
605 7838
605 8206
605 8320
605 8442
605 8547
605 8576
605 9045
605 9270
605 9933
606 619
606 823
606 871
606 1293
606 1472
606 1589
606 1665
606 1987
606 2082
606 2146
606 2685
606 2819
606 3440
606 3919
606 4000
606 4525
606 4555
606 4709
606 5082
606 6011
606 6137
606 6301
606 6348
606 6381
606 6461
606 6575
606 6695
606 8664
606 8832
607 622
607 630
607 664
607 1247
607 1532
607 2041
607 2083
607 2223
607 2226
607 2442
607 2975
607 3002
607 3032
607 3077
607 3317
607 3507
607 3883
607 4023
607 4203
607 4474
607 4569
607 4760
607 5502
607 5965
607 7631
607 8482
608 609
608 715
608 1303
608 1820
608 1964
608 2116
608 2248
608 2264
608 2804
608 2891
608 3119
608 3764
608 4005
608 4130
608 4212
608 4469
608 4935
608 5171
608 5386
608 5524
608 5714
608 5724
608 5838
608 5875
608 6938
608 8124
608 9598
609 1148
609 1701
609 1838
609 2147
609 2271
609 2275
609 2363
609 2463
609 2668
609 2825
609 4343
609 5061
609 5299
609 5569
609 5782
609 8309
609 8648
609 8690
610 650
610 790
610 826
610 1016
610 1195
610 1205
610 1669
610 1720
610 1816
610 1819
610 2006
610 2175
610 2590
610 2630
610 2654
610 2709
610 2782
610 2825
610 2985
610 3028
610 3501
610 3852
610 4173
610 4418
610 4499
610 4807
610 5500
610 5725
610 5748
610 5982
610 6065
610 7402
610 7602
610 8023
610 8174
610 8211
610 8292
610 8604
610 9304
611 729
611 736
611 1094
611 1324
611 1342
611 1467
611 1715
611 2050
611 2285
611 2410
611 2603
611 2782
611 3068
611 3212
611 3298
611 3312
611 3528
611 4188
611 4588
611 4611
611 4791
611 4830
611 5091
611 5669
611 6492
611 6734
611 7246
611 7377
611 7775
611 8203
611 8653
611 8725
611 9051
612 616
612 799
612 880
612 889
612 1081
612 1248
612 1704
612 1725
612 1763
612 1835
612 1874
612 1899
612 1950
612 2015
612 2300
612 2340
612 2529
612 2739
612 2862
612 3178
612 3969
612 4863
612 5373
612 5530
612 5750
612 5831
612 6057
612 6166
612 6212
612 6913
612 6991
612 7013
612 8050
612 8424
612 8596
612 8664
612 8727
612 8845
612 9186
612 9711
612 9723
612 9896
613 1020
613 1072
613 1160
613 2126
613 2189
613 2510
613 2982
613 3145
613 3220
613 3259
613 3278
613 4930
613 5089
613 5357
613 5882
613 6986
613 7278
613 7436
613 7470
613 7891
613 8552
614 636
614 764
614 765
614 821
614 1039
614 1156
614 1173
614 1197
614 1284
614 1523
614 1535
614 1556
614 1571
614 1664
614 1702
614 1729
614 2138
614 2436
614 2846
614 2876
614 3206
614 3273
614 3502
614 3910
614 3915
614 3931
614 4351
614 4414
614 4740
614 5281
614 5476
614 5519
614 5896
614 6105
614 6226
614 7377
614 7414
614 7426
614 7431
614 7520
614 7669
614 8284
614 8354
614 8620
614 8632
614 8826
614 8947
614 9141
614 9228
614 9330
615 620
615 700
615 830
615 847
615 892
615 932
615 948
615 997
615 1280
615 1291
615 1327
615 1449
615 1629
615 1755
615 1790
615 1878
615 1953
615 1994
615 2123
615 2240
615 2373
615 2423
615 2516
615 2786
615 2844
615 3039
615 3057
615 3069
615 3090
615 3251
615 3354
615 3604
615 3701
615 3965
615 3977
615 4080
615 4191
615 4406
615 4625
615 4842
615 5118
615 5156
615 5196
615 5719
615 7387
615 7473
615 7843
615 7878
615 7880
615 8053
615 8373
615 8396
615 9094
615 9175
615 9188
615 9761
616 778
616 971
616 1222
616 1569
616 1744
616 1929
616 2220
616 2788
616 2841
616 3296
616 4321
616 4379
616 4384
616 4501
616 4854
616 5088
616 5102
616 5345
616 5658
616 5888
616 6673
616 6689
616 7362
616 8381
616 8866
616 9108
616 9149
617 718
617 895
617 1021
617 1586
617 1618
617 1824
617 2029
617 2590
617 3212
617 3605
617 3940
617 4061
617 4132
617 4183
617 5845
617 5880
617 6163
617 6565
617 6710
617 6947
617 7246
617 8353
617 9757
618 949
618 986
618 1145
618 1182
618 1191
618 1255
618 1294
618 1460
618 1474
618 1715
618 1810
618 2098
618 2218
618 2711
618 2791
618 2904
618 2966
618 3167
618 3255
618 3338
618 3452
618 3843
618 3900
618 4185
618 4218
618 4349
618 4415
618 4488
618 5724
618 6127
618 6319
618 6427
618 6715
618 6739
618 6961
618 7396
618 7809
618 8014
618 8997
618 9224
618 9891
619 628
619 887
619 1108
619 1506
619 1530
619 1693
619 1755
619 1827
619 1858
619 1943
619 2059
619 2093
619 2291
619 2329
619 2800
619 2812
619 2971
619 3488
619 3495
619 3623
619 3881
619 4606
619 5208
619 6952
619 7124
619 7856
619 8248
619 8492
619 8667
619 8954
619 9114
619 9621
620 636
620 683
620 728
620 830
620 1020
620 1448
620 1531
620 1542
620 1667
620 3600
620 3905
620 4254
620 4488
620 5413
620 5765
620 6285
620 8178
620 8777
620 9136
620 9341
620 9411
620 9426
620 9566
621 964
621 1123
621 1622
621 1637
621 2040
621 2054
621 2133
621 2191
621 2325
621 2604
621 2945
621 3019
621 3320
621 3448
621 3733
621 5367
621 5588
621 6485
621 6486
621 6608
621 7147
621 7253
621 8267
621 8437
621 8692
621 8876
621 9192
621 9460
622 1002
622 1004
622 1201
622 1253
622 1265
622 1438
622 1733
622 1756
622 1794
622 1986
622 2883
622 4174
622 4693
622 6429
622 7969
622 8350
623 660
623 722
623 735
623 879
623 949
623 1013
623 1034
623 1044
623 1064
623 1230
623 1386
623 1496
623 1946
623 2044
623 2091
623 2765
623 2881
623 2953
623 3994
623 4101
623 4380
623 4937
623 5115
623 5662
623 5767
623 6116
623 6504
623 6880
623 7187
623 7295
623 8042
623 8661
623 9947
623 9975
624 717
624 920
624 1054
624 1243
624 1559
624 1930
624 2432
624 2544
624 3186
624 3382
624 3438
624 3519
624 3586
624 3646
624 4806
624 5141
624 5295
624 5350
624 5615
624 5958
624 6686
624 6995
624 8676
624 8682
624 8719
624 9122
624 9207
624 9247
624 9375
624 9409
624 9728
625 677
625 832
625 993
625 1044
625 1133
625 1208
625 1309
625 1336
625 1456
625 1709
625 2190
625 2389
625 2803
625 3331
625 3798
625 3936
625 4005
625 4099
625 4300
625 4370
625 4568
625 5780
625 6303
625 7116
625 7474
625 7971
625 7979
625 8138
625 8180
625 8271
625 9776
626 728
626 792
626 797
626 803
626 859
626 970
626 1091
626 1330
626 1446
626 1519
626 1627
626 1713
626 1756
626 1774
626 2482
626 3237
626 3428
626 3444
626 3773
626 3913
626 4027
626 4244
626 4811
626 5104
626 5601
626 5868
626 5971
626 5980
626 6215
626 6422
626 7122
626 7498
626 7586
626 7625
626 8857
626 8930
626 8970
627 823
627 1004
627 1079
627 1111
627 1227
627 1705
627 2013
627 2319
627 2469
627 3215
627 3295
627 3323
627 3545
627 4382
627 4677
627 4777
627 4880
627 5073
627 6200
627 6702
627 6851
627 7176
627 7576
627 7635
627 8567
627 8935
627 9312
628 730
628 861
628 865
628 942
628 973
628 1051
628 1066
628 1188
628 1222
628 1296
628 1337
628 1473
628 2804
628 2866
628 2892
628 2894
628 2976
628 3031
628 3103
628 3487
628 3617
628 3747
628 3785
628 3827
628 3916
628 4230
628 4288
628 4843
628 4961
628 4977
628 5258
628 5365
628 6238
628 6491
628 6494
628 6926
628 7050
628 7391
628 7986
628 8296
628 8353
628 8660
628 9178
628 9364
628 9639
629 999
629 2408
629 2633
629 2878
629 3176
629 3693
629 3991
629 4402
629 4433
629 4563
629 4858
629 4940
629 5481
629 5859
629 6803
629 8044
629 8497
629 8574
629 9541
629 9552
630 640
630 681
630 766
630 997
630 1109
630 1115
630 1170
630 1196
630 1388
630 1517
630 1667
630 1717
630 1718
630 2444
630 2598
630 3239
630 3304
630 3428
630 3603
630 4001
630 4336
630 4369
630 4591
630 4684
630 4734
630 4758
630 5809
630 5846
630 5905
630 5929
630 5982
630 6623
630 6652
630 6759
630 7164
630 7611
630 7758
630 8008
630 8175
630 8649
630 9320
630 9392
630 9579
630 9746
631 849
631 1268
631 1353
631 1405
631 1688
631 2320
631 4026
631 4092
631 4133
631 5148
631 5301
631 5340
631 5714
631 6075
631 6426
631 6467
631 6697
631 6772
631 6817
631 6959
631 6972
631 7163
631 7319
631 8573
632 753
632 785
632 966
632 1081
632 1177
632 2051
632 2353
632 2406
632 2532
632 4765
632 5097
632 5166
632 5304
632 5307
632 5827
632 7626
632 8823
633 774
633 863
633 992
633 1311
633 1761
633 1970
633 2015
633 2022
633 2036
633 2086
633 2102
633 2230
633 2406
633 2436
633 3026
633 3036
633 3283
633 4436
633 5304
633 5774
633 6212
633 6321
633 6841
633 7013
633 7071
633 7420
633 7868
633 9331
633 9469
633 9645
633 9783
634 636
634 905
634 984
634 1016
634 1052
634 1245
634 1373
634 4423
634 5514
634 5851
634 5985
634 6226
634 7291
634 7738
634 8216
634 8826
635 740
635 890
635 957
635 1106
635 1158
635 1543
635 1653
635 1734
635 1809
635 1995
635 2173
635 2681
635 2991
635 3073
635 3114
635 3385
635 3497
635 3676
635 4824
635 4894
635 5127
635 5214
635 5540
635 6749
635 6881
635 7250
635 8508
635 8568
635 8799
635 8983
635 9391
635 9836
635 9838
636 645
636 857
636 985
636 1238
636 1281
636 1367
636 1447
636 1480
636 1623
636 1836
636 2273
636 2512
636 2908
636 3038
636 3180
636 3299
636 3347
636 3635
636 3913
636 4410
636 6490
636 8070
636 8422
636 8593
636 9895
637 683
637 692
637 753
637 1177
637 1252
637 2204
637 2339
637 2504
637 2578
637 3743
637 4204
637 4487
637 4526
637 5666
637 6370
637 7527
637 8712
637 9305
637 9887
637 9948
638 859
638 1836
638 2722
638 3300
638 3464
638 3549
638 5038
638 6627
638 6831
638 7979
638 8219
638 8999
638 9685
639 653
639 661
639 745
639 778
639 790
639 820
639 1060
639 1078
639 1588
639 1693
639 1891
639 1942
639 2071
639 2535
639 2649
639 2709
639 2806
639 2811
639 3227
639 3458
639 3887
639 4031
639 4240
639 4320
639 4527
639 4950
639 5134
639 5393
639 5407
639 5804
639 5895
639 5934
639 6359
639 6472
639 6707
639 7028
639 7055
639 7187
639 7252
639 7389
639 7473
639 7712
639 8237
639 8969
639 9212
639 9753
639 9847
640 742
640 815
640 961
640 1074
640 1176
640 1273
640 1931
640 1948
640 1956
640 2113
640 2212
640 2592
640 2750
640 2785
640 2888
640 3046
640 3147
640 3403
640 3504
640 3773
640 3805
640 3899
640 4010
640 4313
640 4540
640 4913
640 5039
640 5617
640 5756
640 5855
640 5969
640 6075
640 6285
640 6325
640 6439
640 6785
640 7070
640 7520
640 7794
640 8071
640 8844
640 9202
640 9357
640 9751
641 702
641 749
641 1257
641 1276
641 1475
641 1502
641 2108
641 2754
641 2847
641 2941
641 3011
641 3207
641 4056
641 4562
641 4702
641 4981
641 5397
641 5677
641 5821
641 6167
641 6811
641 7149
641 7756
641 7893
641 8585
641 9698
641 9711
641 9981
642 770
642 830
642 1306
642 1708
642 1779
642 2762
642 3003
642 3074
642 4812
642 4879
642 6709
642 8384
642 8853
642 9596
643 646
643 801
643 971
643 1208
643 1526
643 1675
643 1872
643 1946
643 2026
643 2041
643 2392
643 2469
643 2903
643 3117
643 3217
643 3219
643 3282
643 3381
643 4006
643 4060
643 4074
643 5525
643 5832
643 8121
643 8493
643 8701
643 8790
643 9392
644 1878
644 2117
644 2260
644 2754
644 2966
644 3071
644 4234
644 4372
644 4496
644 4747
644 4929
644 5576
644 5898
644 6128
644 6382
644 7014
644 8109
644 8389
644 8840
644 9418
644 9518
644 9664
645 908
645 1001
645 1082
645 1371
645 1400
645 1601
645 2008
645 2308
645 2342
645 2734
645 3024
645 3098
645 3419
645 3816
645 3891
645 3946
645 4250
645 4269
645 4383
645 5466
645 5500
645 5579
645 5877
645 6332
645 7119
645 7583
645 7708
645 7945
645 8051
645 9047
645 9659
645 9697
645 9876
646 743
646 747
646 906
646 1041
646 1725
646 1770
646 1990
646 2024
646 2206
646 3101
646 3129
646 3209
646 3849
646 3973
646 4736
646 4800
646 5297
646 6076
646 6220
646 6418
646 7385
646 7388
646 8049
646 8345
646 8774
646 8991
646 9267
646 9616
647 720
647 1038
647 1052
647 1167
647 1217
647 1545
647 1570
647 1700
647 1734
647 2062
647 2231
647 2270
647 2780
647 2861
647 3187
647 4277
647 4295
647 4478
647 4613
647 4641
647 5029
647 5713
647 5976
647 6056
647 6331
647 6589
647 7243
647 8301
647 8728
647 9050
647 9055
647 9391
648 751
648 878
648 938
648 960
648 1381
648 1645
648 1670
648 1757
648 1775
648 1881
648 2225
648 2344
648 2347
648 2398
648 2411
648 2795
648 3242
648 3422
648 3494
648 3582
648 3625
648 4067
648 4545
648 4760
648 5071
648 5177
648 5759
648 5868
648 5918
648 5936
648 5988
648 7292
648 7471
648 7533
648 8347
648 8522
648 8656
648 8886
648 9008
648 9377
648 9786
649 743
649 750
649 924
649 1033
649 1174
649 1199
649 1234
649 1328
649 1345
649 1370
649 1467
649 1642
649 1661
649 2025
649 2032
649 2098
649 2261
649 2440
649 2526
649 2930
649 2935
649 3138
649 4029
649 4542
649 4735
649 4750
649 4843
649 4898
649 5262
649 5453
649 5838
649 5858
649 6239
649 7139
649 7167
649 8738
649 9356
650 676
650 1020
650 1025
650 1087
650 1298
650 1324
650 1444
650 1698
650 2132
650 2154
650 2441
650 2503
650 2664
650 4125
650 4588
650 4653
650 5130
650 6587
650 6675
650 7061
650 7241
650 7698
650 9213
650 9335
651 920
651 1086
651 1789
651 1957
651 2028
651 2196
651 3015
651 3285
651 3366
651 3397
651 3416
651 3694
651 3749
651 4765
651 6769
651 7427
651 7777
651 8426
651 8600
651 9213
651 9820
651 9862
652 699
652 1087
652 1189
652 1228
652 1426
652 1563
652 1653
652 2057
652 2061
652 3138
652 3315
652 4001
652 4090
652 4235
652 5597
652 6307
652 9615
652 9769
653 881
653 913
653 969
653 1250
653 1285
653 1824
653 1846
653 2900
653 3166
653 3177
653 3548
653 3931
653 4395
653 4480
653 4723
653 4735
653 5507
653 5729
653 5745
653 5902
653 6136
653 7608
653 7830
653 8360
653 8459
653 8587
654 660
654 699
654 812
654 887
654 1026
654 1124
654 1239
654 1448
654 1620
654 1653
654 1820
654 2202
654 2400
654 2468
654 2932
654 2955
654 2970
654 3075
654 3172
654 3203
654 3295
654 3490
654 4163
654 4292
654 4336
654 4726
654 4903
654 5028
654 5494
654 5771
654 5864
654 5868
654 6084
654 6420
654 6636
654 6809
654 6850
654 7127
654 7964
654 8206
654 8304
654 9241
654 9525
654 9942
655 664
655 903
655 1029
655 1162
655 1510
655 1519
655 1717
655 1744
655 2309
655 3018
655 3405
655 4223
655 4573
655 5077
655 5132
655 5479
655 5583
655 6087
655 6733
655 6816
655 6915
655 7282
655 7380
655 7805
655 8099
655 8782
656 786
656 814
656 853
656 895
656 907
656 945
656 1002
656 1055
656 1072
656 1374
656 1617
656 1754
656 1767
656 1835
656 1967
656 2041
656 2470
656 2617
656 3732
656 3774
656 4477
656 5196
656 5889
656 6552
656 7106
656 7457
656 7700
656 7828
656 8726
656 9316
657 953
657 967
657 1083
657 1090
657 1128
657 1160
657 1206
657 1470
657 1589
657 1658
657 1756
657 1957
657 1961
657 2655
657 2693
657 3242
657 4545
657 5060
657 5210
657 5453
657 5583
657 5625
657 7147
657 7172
657 7197
657 7341
657 7703
657 8836
657 9409
658 973
658 985
658 1004
658 1515
658 1541
658 1552
658 1617
658 1690
658 1710
658 1900
658 1977
658 1992
658 2113
658 2684
658 3126
658 3136
658 3203
658 3364
658 3901
658 3942
658 4151
658 4357
658 4460
658 5131
658 5422
658 5549
658 6734
658 7438
658 7841
658 8549
658 9023
658 9083
658 9581
658 9807
659 765
659 1029
659 1093
659 1120
659 1287
659 1634
659 2093
659 2325
659 2338
659 2442
659 2735
659 2774
659 2797
659 2855
659 2902
659 2991
659 4362
659 5140
659 5251
659 5544
659 5679
659 5837
659 5877
659 6082
659 6133
659 6667
659 6784
659 6807
659 6904
659 7874
659 7965
659 8461
659 9089
660 705
660 786
660 798
660 817
660 895
660 917
660 973
660 1118
660 1651
660 1689
660 1862
660 1992
660 2144
660 2213
660 2226
660 2382
660 2904
660 2948
660 2979
660 3572
660 3781
660 3832
660 3906
660 4171
660 4259
660 4389
660 4431
660 4850
660 4950
660 5078
660 5293
660 5368
660 5485
660 6121
660 7125
660 7758
660 8042
660 8075
660 8145
660 8346
660 8501
660 8994
660 9088
660 9135
660 9629
660 9641
660 9766
661 675
661 1060
661 1359
661 1439
661 1830
661 2107
661 2136
661 2384
661 2418
661 2937
661 3482
661 3687
661 4741
661 4752
661 5214
661 5560
661 5837
661 5886
661 6271
661 6292
661 6489
661 6563
661 7281
661 7946
661 8840
661 9086
661 9235
661 9466
661 9809
662 667
662 696
662 775
662 899
662 1070
662 1254
662 1482
662 1578
662 1597
662 1841
662 2068
662 2266
662 2366
662 2388
662 2466
662 2490
662 2509
662 2660
662 2980
662 3522
662 3550
662 3558
662 3771
662 4029
662 4277
662 4326
662 4753
662 4812
662 4835
662 5007
662 5041
662 5227
662 5300
662 5528
662 5805
662 5878
662 5978
662 6015
662 6018
662 6410
662 6446
662 6645
662 6709
662 7771
662 7818
662 8100
662 8241
662 8399
662 8709
662 9766
663 719
663 721
663 791
663 905
663 1306
663 1753
663 1947
663 2133
663 2525
663 2989
663 3333
663 3409
663 3580
663 3635
663 3695
663 3753
663 4199
663 4359
663 4586
663 4787
663 4838
663 5780
663 6264
663 6914
663 7352
663 7665
663 7890
663 7921
663 8235
663 8625
663 8685
663 8693
663 9304
663 9551
663 9553
663 9869
664 675
664 679
664 727
664 763
664 921
664 948
664 968
664 1378
664 1396
664 1631
664 1878
664 2083
664 2404
664 2796
664 2969
664 3359
664 3444
664 3862
664 4723
664 4821
664 5100
664 5185
664 5383
664 5489
664 5845
664 6081
664 6431
664 6444
664 6518
664 6562
664 6596
664 6852
664 7671
664 7713
664 7886
664 8084
664 8110
664 8115
664 8143
664 8219
664 8220
664 9077
664 9497
664 9913
665 855
665 993
665 1073
665 1264
665 1276
665 1744
665 1774
665 1786
665 1790
665 2086
665 2257
665 2265
665 2409
665 2608
665 2628
665 2629
665 2651
665 2798
665 2883
665 2922
665 3238
665 3548
665 3710
665 3725
665 3858
665 4096
665 4619
665 5180
665 5292
665 6540
665 7020
665 7096
665 8347
665 8599
665 8925
665 9006
665 9172
665 9906
665 9964
666 811
666 1003
666 1151
666 1205
666 1217
666 1441
666 1512
666 1520
666 1544
666 2136
666 2199
666 2283
666 3007
666 3210
666 3756
666 3932
666 4133
666 4200
666 4393
666 4605
666 4665
666 4700
666 4798
666 4988
666 5228
666 5516
666 5556
666 5997
666 6210
666 6223
666 7086
666 7279
666 8166
666 8332
666 8384
666 9068
666 9260
667 741
667 1210
667 1644
667 1721
667 2790
667 3381
667 3417
667 3834
667 4196
667 4963
667 5015
667 5063
667 5172
667 5273
667 5516
667 6270
667 7000
667 7232
667 7257
667 8480
667 8758
667 8816
667 9179
668 686
668 868
668 936
668 1038
668 1126
668 1287
668 1315
668 1573
668 2325
668 2369
668 2418
668 2527
668 2535
668 2600
668 2647
668 2679
668 2993
668 3302
668 3405
668 3508
668 3996
668 4566
668 4659
668 4695
668 5015
668 5052
668 5056
668 5519
668 5586
668 5639
668 6899
668 7348
668 8159
668 8291
668 8572
668 8700
668 8701
668 9934
669 777
669 945
669 1114
669 1262
669 1281
669 1310
669 1396
669 1546
669 1914
669 2203
669 2387
669 2409
669 2524
669 2774
669 3012
669 3104
669 3177
669 3178
669 3504
669 3902
669 4355
669 4377
669 4703
669 4840
669 5110
669 5135
669 5395
669 5963
669 6237
669 6265
669 6550
669 6610
669 6666
669 7131
669 7190
669 7236
669 8551
669 8616
669 8710
670 1015
670 1451
670 1468
670 1490
670 1649
670 1788
670 1902
670 2080
670 2617
670 2672
670 3022
670 3472
670 3535
670 3566
670 3675
670 4222
670 4312
670 4465
670 4623
670 5735
670 5850
670 6661
670 6779
670 6937
670 7261
670 8806
670 9373
670 9524
671 726
671 937
671 991
671 1010
671 1092
671 1332
671 1555
671 1564
671 1631
671 1867
671 2105
671 2162
671 2705
671 3684
671 3739
671 4293
671 4468
671 5319
671 5732
671 6277
671 6588
671 6615
671 6790
671 8634
671 8866
671 8885
671 9971
672 690
672 723
672 806
672 855
672 875
672 937
672 1025
672 1055
672 1259
672 1284
672 1320
672 1373
672 1442
672 1528
672 1613
672 1672
672 1890
672 1900
672 2070
672 2200
672 2231
672 2256
672 2326
672 2848
672 3192
672 3218
672 3474
672 3727
672 4354
672 4547
672 4626
672 5038
672 5039
672 5100
672 5179
672 5296
672 5631
672 6014
672 6271
672 6282
672 6423
672 6445
672 7124
672 7270
672 8380
672 8534
672 8902
672 9411
672 9820
673 916
673 1190
673 1214
673 1925
673 2033
673 2672
673 3057
673 3164
673 3731
673 4201
673 4240
673 4325
673 5640
673 6019
673 6113
673 7074
673 7507
673 8154
674 764
674 820
674 873
674 903
674 1011
674 1314
674 1590
674 1649
674 1689
674 1690
674 2201
674 2613
674 2683
674 3168
674 3524
674 3594
674 3661
674 3963
674 4028
674 4071
674 4222
674 4321
674 4794
674 5288
674 6523
674 7375
674 8102
674 8363
674 8663
674 8711
674 9099
675 691
675 744
675 882
675 920
675 1033
675 1036
675 1066
675 1220
675 1446
675 1575
675 1846
675 2004
675 2096
675 2525
675 2578
675 2761
675 3230
675 3422
675 3449
675 3503
675 3577
675 3650
675 3760
675 4889
675 5126
675 5635
675 5901
675 7678
675 8003
675 8180
675 8430
675 8662
675 9082
675 9226
675 9264
675 9522
675 9635
675 9966
676 698
676 702
676 876
676 962
676 976
676 1087
676 1928
676 2633
676 3516
676 3541
676 3562
676 3658
676 4221
676 5298
676 5323
676 6455
676 7201
676 7549
676 7956
676 8907
676 9442
677 849
677 962
677 1312
677 1396
677 1513
677 1939
677 2217
677 2225
677 2474
677 2857
677 2921
677 2983
677 3142
677 3557
677 3821
677 3848
677 4681
677 4969
677 6239
677 6356
677 6421
677 6611
677 7884
677 8987
677 9005
677 9425
677 9897
678 1340
678 1385
678 1658
678 1910
678 2082
678 2262
678 2405
678 2486
678 2506
678 2838
678 2887
678 2940
678 2946
678 3427
678 3612
678 3805
678 3981
678 5707
678 5874
678 6070
678 6539
678 7753
678 7916
679 690
679 696
679 728
679 763
679 859
679 1056
679 1065
679 1403
679 1568
679 1570
679 1621
679 1837
679 2189
679 2419
679 2437
679 2438
679 2515
679 2533
679 2621
679 2632
679 2637
679 2762
679 2829
679 3159
679 3299
679 3432
679 3600
679 3818
679 3859
679 4041
679 4084
679 4211
679 4286
679 4610
679 5131
679 5133
679 5948
679 5968
679 6255
679 6264
679 6554
679 6688
679 7601
679 8249
679 8635
679 8725
679 8729
679 8966
679 9093
679 9130
679 9249
679 9340
679 9972
680 833
680 934
680 1085
680 1492
680 1565
680 1735
680 1796
680 1869
680 1989
680 2195
680 2247
680 2410
680 2453
680 2568
680 2590
680 3032
680 4292
680 4387
680 4593
680 6076
680 6246
680 6343
680 6468
680 7430
680 7937
680 8203
680 8574
680 9192
680 9258
681 702
681 714
681 1028
681 1394
681 1415
681 1950
681 2023
681 2187
681 2234
681 2652
681 3006
681 3099
681 3454
681 3609
681 3809
681 3843
681 4797
681 4985
681 5714
681 5789
681 6112
681 6211
681 6282
681 7330
681 7539
681 7556
681 8350
681 9032
682 791
682 1127
682 1183
682 1967
682 2829
682 3061
682 3246
682 3463
682 4059
682 4284
682 5037
682 5311
682 5526
682 5551
682 5977
682 6542
682 6674
682 6713
682 7122
682 7353
682 7841
682 8223
682 8974
682 9400
682 9526
682 9556
682 9861
682 9910
682 9972
683 984
683 1027
683 1040
683 1227
683 1431
683 1651
683 1790
683 2182
683 2558
683 2579
683 2797
683 2811
683 3041
683 3318
683 3503
683 3695
683 3835
683 4131
683 5428
683 5445
683 5448
683 5511
683 5681
683 6002
683 6011
683 6472
683 7113
683 7533
683 7766
683 7772
683 7972
683 8266
683 8644
683 9077
683 9501
683 9652
684 863
684 1220
684 1452
684 1734
684 2099
684 2264
684 2272
684 2391
684 2834
684 3509
684 3587
684 3972
684 4154
684 4400
684 4678
684 5575
684 5916
684 6430
684 6826
684 7000
684 8028
684 8926
684 9267
685 872
685 1747
685 2197
685 2203
685 2493
685 2726
685 2750
685 2840
685 2849
685 3316
685 3495
685 3516
685 3638
685 4114
685 4762
685 4941
685 4989
685 5441
685 5480
685 5547
685 6249
685 6280
685 6652
685 7715
685 7752
685 8215
685 8484
686 883
686 912
686 969
686 1072
686 1206
686 1230
686 1356
686 1736
686 2075
686 2411
686 2558
686 2716
686 3294
686 3483
686 3681
686 3722
686 4634
686 4931
686 5646
686 5668
686 6608
686 7136
686 7391
686 7446
686 7961
686 8089
686 9448
686 9622
687 1242
687 1629
687 1866
687 1937
687 2473
687 2713
687 2715
687 3757
687 3934
687 3952
687 4302
687 5010
687 5134
687 5243
687 6225
687 6541
687 6565
687 6910
687 7005
687 7161
688 831
688 869
688 1549
688 1771
688 1810
688 1852
688 1899
688 2108
688 2182
688 3192
688 3388
688 3708
688 4107
688 4321
688 4339
688 4583
688 4620
688 4717
688 4797
688 5080
688 5167
688 5407
688 5727
688 5884
688 6044
688 6201
688 6270
688 6280
688 6438
688 6794
688 7214
688 7238
688 7536
688 7814
688 8111
688 8166
688 8288
688 8310
688 8392
688 8576
688 8613
688 9058
688 9263
688 9317
688 9472
688 9718
689 805
689 814
689 933
689 957
689 1045
689 1307
689 2431
689 2529
689 2660
689 3575
689 3856
689 5772
689 6106
689 8094
689 8645
689 8738
689 9318
690 831
690 1442
690 1558
690 2551
690 2658
690 2680
690 3023
690 3147
690 3352
690 3557
690 3691
690 4339
690 4770
690 4960
690 5489
690 6314
690 6348
690 6553
690 6554
690 6981
690 7276
690 8211
690 8600
690 9005
691 913
691 926
691 983
691 1282
691 1350
691 1384
691 1732
691 2380
691 2895
691 3176
691 3868
691 3884
691 3980
691 4112
691 4405
691 5399
691 5530
691 5657
691 5916
691 5972
691 6088
691 6174
691 6688
691 7396
691 7542
691 8071
691 8709
691 9095
691 9126
692 924
692 1063
692 2081
692 2114
692 2245
692 2358
692 2801
692 3075
692 3088
692 3091
692 3122
692 3162
692 3410
692 3686
692 3814
692 4223
692 4380
692 5396
692 5877
692 8550
692 9050
692 9380
692 9795
693 811
693 841
693 1132
693 1298
693 1994
693 2331
693 2735
693 3541
693 4455
693 4574
693 5186
693 5369
693 5645
693 5879
693 6107
693 6349
693 6960
693 7368
693 8306
693 8475
693 9019
693 9308
693 9496
693 9720
693 9851
693 9858
694 764
694 1063
694 1141
694 1181
694 1390
694 1672
694 1705
694 1990
694 2560
694 2774
694 2917
694 3076
694 3639
694 4186
694 4328
694 4421
694 5034
694 5460
694 5954
694 6726
694 7674
694 9767
695 788
695 991
695 1021
695 1177
695 1399
695 1540
695 1809
695 2445
695 3079
695 3510
695 4714
695 5452
695 5632
695 6125
695 6134
695 6352
695 6860
695 7081
695 7271
695 7409
695 7463
695 8147
695 8276
695 8744
695 9581
696 936
696 1014
696 1216
696 1390
696 1652
696 2860
696 3198
696 3498
696 4520
696 4791
696 5045
696 5077
696 5170
696 5307
696 5569
696 5755
696 6063
696 6415
696 7562
696 8090
696 8677
696 8807
696 9738
697 816
697 925
697 1108
697 1215
697 1243
697 1342
697 1657
697 2001
697 2165
697 2360
697 2534
697 2547
697 2674
697 2768
697 2844
697 3191
697 3251
697 3272
697 3474
697 3502
697 3601
697 3790
697 4152
697 4228
697 4445
697 4501
697 5081
697 5506
697 5569
697 6335
697 6732
697 7051
697 7186
697 7555
697 8158
697 9862
698 825
698 1311
698 1504
698 1754
698 1935
698 2069
698 2211
698 2648
698 2718
698 3058
698 3789
698 5800
698 5894
698 6164
698 6640
698 6645
698 9179
698 9291
699 729
699 813
699 879
699 884
699 931
699 987
699 1131
699 1132
699 1181
699 1311
699 1397
699 1512
699 1723
699 1894
699 2245
699 2903
699 3617
699 3631
699 4277
699 4356
699 4454
699 4545
699 4579
699 4883
699 5807
699 5962
699 6119
699 6203
699 6536
699 6621
699 6804
699 7083
699 7550
699 7830
699 7901
699 8831
699 9040
699 9063
699 9437
699 9558
699 9879
700 710
700 787
700 933
700 1035
700 1259
700 1342
700 1527
700 1623
700 1701
700 2002
700 2007
700 2064
700 2303
700 2333
700 2617
700 3397
700 3854
700 5070
700 5103
700 5474
700 5555
700 6554
700 6627
700 7420
700 8131
700 8233
700 8449
700 9656
700 9824
701 734
701 990
701 1159
701 1401
701 1412
701 1902
701 2364
701 2743
701 4165
701 5596
701 6225
701 6642
701 6842
701 6889
701 6994
701 7435
701 7862
701 7883
701 8539
701 8814
701 9303
701 9450
701 9833
702 815
702 878
702 940
702 1051
702 1060
702 1098
702 1122
702 1213
702 2298
702 2305
702 2322
702 2572
702 2580
702 2950
702 3210
702 3355
702 3361
702 3794
702 4289
702 4732
702 4963
702 5685
702 5846
702 6368
702 6467
702 8599
702 9022
702 9912
703 715
703 893
703 945
703 1873
703 1960
703 2400
703 2575
703 2950
703 3276
703 3435
703 3488
703 3573
703 3788
703 4235
703 4245
703 4346
703 4505
703 4652
703 4894
703 5115
703 5295
703 5450
703 5502
703 5677
703 5810
703 6232
703 6545
703 7224
703 7449
703 8043
703 8117
703 8307
703 8916
703 9138
703 9987
704 849
704 1050
704 1058
704 1119
704 1317
704 1422
704 1458
704 1479
704 1532
704 1552
704 2009
704 2120
704 2219
704 3794
704 3973
704 3990
704 4149
704 4200
704 4339
704 4414
704 4875
704 4919
704 5340
704 5412
704 5892
704 5948
704 6330
704 7176
704 7606
704 7640
704 7953
704 8804
704 9091
704 9514
704 9639
705 827
705 854
705 1182
705 1344
705 1521
705 1916
705 1924
705 2815
705 3357
705 3497
705 3838
705 4141
705 4266
705 5016
705 5249
705 6652
705 6683
705 6996
705 7840
705 8640
705 9257
705 9283
705 9366
705 9499
705 9706
706 1107
706 1172
706 1432
706 1444
706 1474
706 1619
706 2112
706 2531
706 2768
706 2970
706 3027
706 3260
706 3423
706 3436
706 3693
706 3923
706 5640
706 5747
706 6087
706 6323
706 6370
706 7991
706 9853
707 724
707 785
707 909
707 1224
707 1296
707 1307
707 1330
707 1512
707 1739
707 3264
707 3326
707 3426
707 3461
707 3570
707 3694
707 4368
707 4386
707 4754
707 4787
707 5138
707 5697
707 5932
707 5957
707 6346
707 6588
707 7138
707 7237
707 8132
707 8551
707 8771
707 9830
707 9963
708 1163
708 1384
708 1414
708 1475
708 2257
708 2352
708 2688
708 3619
708 3722
708 4415
708 4903
708 5888
708 7483
708 9370
709 868
709 976
709 1091
709 1140
709 1169
709 1645
709 1735
709 1827
709 2337
709 3400
709 3591
709 4268
709 4478
709 5008
709 5211
709 6457
709 6520
709 6800
709 7367
709 7826
709 8558
710 830
710 911
710 1116
710 1310
710 1690
710 1984
710 2306
710 2613
710 2961
710 3018
710 3974
710 4338
710 4353
710 4925
710 5166
710 5384
710 5405
710 5571
710 5872
710 6007
710 6121
710 7005
710 7286
710 8588
710 8596
710 8973
710 8992
710 9245
710 9839
711 740
711 1129
711 1225
711 1827
711 1962
711 2094
711 2113
711 2409
711 2577
711 3391
711 3544
711 5494
711 5626
711 5669
711 5809
711 5997
711 6596
711 6630
711 7486
711 7730
711 8109
711 8247
711 8372
711 8802
712 725
712 794
712 888
712 933
712 1013
712 1135
712 1246
712 1714
712 1951
712 2071
712 2169
712 2276
712 2474
712 2493
712 2547
712 2580
712 2686
712 2715
712 2777
712 2868
712 2909
712 3165
712 3232
712 3395
712 3488
712 3683
712 3786
712 4095
712 4237
712 4314
712 4770
712 4792
712 4864
712 5156
712 5741
712 5973
712 6020
712 6031
712 6411
712 7189
712 7281
712 7903
712 9157
712 9525
712 9812
712 9913
712 9959
712 9965
713 717
713 999
713 1069
713 1134
713 1255
713 1446
713 1667
713 1813
713 2523
713 2963
713 3631
713 3735
713 4198
713 4466
713 4639
713 5662
713 5755
713 6253
713 7148
713 7266
713 7435
713 7455
713 7708
713 8046
713 8234
713 8530
713 8825
713 9887
714 796
714 897
714 1213
714 1233
714 1552
714 1639
714 2093
714 2342
714 2586
714 2593
714 2870
714 3607
714 4780
714 4844
714 5140
714 6393
714 7219
714 7912
714 8541
714 8835
714 8992
714 9781
714 9951
715 860
715 927
715 1002
715 1098
715 1127
715 1143
715 1200
715 1280
715 1296
715 1372
715 1617
715 1795
715 2107
715 2312
715 2495
715 2879
715 3097
715 3188
715 3273
715 3337
715 3384
715 3912
715 3973
715 4358
715 4684
715 4718
715 4921
715 5630
715 5659
715 5706
715 5969
715 6247
715 6417
715 6441
715 6879
715 6983
715 7382
715 7508
715 7575
715 7782
715 7818
715 7949
715 8028
715 8431
715 9373
715 9385
715 9605
715 9719
715 9952
716 773
716 844
716 890
716 1053
716 1279
716 1352
716 1400
716 1543
716 1650
716 2377
716 3096
716 3815
716 4302
716 4328
716 4468
716 4633
716 4642
716 4683
716 5127
716 5638
716 5723
716 5866
716 5955
716 6285
716 6894
716 6907
716 6970
716 7510
716 7940
716 8118
716 9187
717 967
717 980
717 983
717 1025
717 1305
717 1612
717 1683
717 1692
717 2130
717 2300
717 2657
717 2699
717 2734
717 3469
717 3688
717 3755
717 4055
717 4177
717 5040
717 5572
717 5683
717 5720
717 6162
717 6464
717 7356
717 8988
717 9330
718 976
718 1006
718 1353
718 1727
718 1954
718 2145
718 2275
718 2397
718 2739
718 2941
718 3032
718 3120
718 4004
718 4864
718 5117
718 5192
718 6886
718 6951
718 7492
718 8034
718 8228
719 1210
719 1815
719 2021
719 2070
719 3150
719 3256
719 3312
719 3331
719 3678
719 3688
719 3788
719 4221
719 4504
719 4809
719 6740
719 9420
719 9526
719 9629
720 871
720 915
720 998
720 1092
720 1097
720 1160
720 1226
720 1502
720 1573
720 1675
720 1734
720 1813
720 2225
720 2464
720 2511
720 2832
720 2895
720 3671
720 3966
720 4018
720 4229
720 4729
720 5100
720 5116
720 5142
720 5698
720 5703
720 5721
720 5992
720 6349
720 6360
720 7047
720 7556
720 7875
720 8505
720 8527
720 9042
720 9409
720 9991
721 1134
721 1423
721 1650
721 1694
721 1736
721 2093
721 3282
721 3850
721 5037
721 6626
721 9239
721 9818
722 732
722 759
722 781
722 889
722 1077
722 1128
722 1205
722 1386
722 1495
722 1510
722 1534
722 2201
722 2211
722 2571
722 2693
722 2994
722 3168
722 3649
722 3659
722 3754
722 3917
722 3919
722 4022
722 4210
722 4404
722 4819
722 4852
722 5290
722 5870
722 6365
722 6443
722 6519
722 6638
722 7160
722 7267
722 7360
722 7399
722 8555
722 9075
722 9982
723 795
723 802
723 898
723 917
723 1266
723 1403
723 1650
723 1785
723 2282
723 2526
723 2622
723 2717
723 2848
723 3122
723 3211
723 3725
723 3949
723 4026
723 4966
723 5102
723 5757
723 6531
723 7055
723 7059
723 7789
723 8176
723 9221
723 9287
723 9311
723 9987
723 9992
724 788
724 874
724 923
724 1057
724 1149
724 1262
724 1934
724 2305
724 2313
724 2515
724 3117
724 3785
724 3983
724 4062
724 5621
724 6039
724 7207
724 7568
724 8268
724 8875
724 9140
724 9675
725 1079
725 1217
725 1309
725 1547
725 1705
725 1929
725 1951
725 2085
725 2408
725 2449
725 2652
725 2795
725 3184
725 3280
725 3588
725 4361
725 4385
725 4715
725 4947
725 5206
725 5476
725 5512
725 5642
725 5853
725 5889
725 5972
725 5983
725 6184
725 6232
725 6240
725 6493
725 6728
725 7239
725 7326
725 7468
725 7654
725 7693
725 7880
725 7919
725 8880
725 8953
725 9090
725 9349
726 809
726 910
726 921
726 1226
726 1235
726 1237
726 1337
726 1355
726 1457
726 1873
726 1959
726 2045
726 2060
726 2105
726 2310
726 2333
726 2395
726 2650
726 2864
726 3359
726 3578
726 3693
726 4115
726 4312
726 4462
726 4485
726 4720
726 4773
726 5296
726 5497
726 5955
726 6129
726 7441
726 7732
726 7766
726 8116
726 9988
727 853
727 923
727 1355
727 1628
727 1692
727 1746
727 1784
727 1807
727 1879
727 2261
727 2307
727 2450
727 2645
727 2740
727 2806
727 2814
727 3167
727 3456
727 3856
727 4152
727 4420
727 4486
727 4813
727 5035
727 5173
727 5466
727 5757
727 6991
727 7273
727 7445
727 7606
727 7614
727 7951
727 8437
727 8593
727 8617
727 9037
727 9489
728 1013
728 1129
728 1358
728 1406
728 1662
728 1907
728 2467
728 3278
728 4484
728 4581
728 5457
728 6077
728 6381
728 6914
728 7368
728 9965
729 1129
729 2790
729 3301
729 3500
729 3555
729 3567
729 3631
729 4133
729 4657
729 5172
729 5472
729 5495
729 6011
729 6792
729 7535
729 7648
729 8401
729 9927
730 768
730 898
730 1377
730 1579
730 1587
730 1610
730 2290
730 2337
730 2390
730 2612
730 2699
730 3255
730 3317
730 3530
730 4086
730 4088
730 4867
730 5098
730 6328
730 7991
730 8149
730 8279
730 8997
730 9105
730 9213
730 9408
730 9510
730 9975
731 798
731 994
731 1032
731 1379
731 1877
731 2023
731 2438
731 2445
731 3131
731 3411
731 3534
731 4034
731 4285
731 4288
731 4745
731 5105
731 6257
731 6353
731 6600
731 6653
731 7030
731 7466
731 8227
731 8829
731 9683
731 9804
732 1391
732 1942
732 1968
732 2028
732 2325
732 2388
732 3303
732 3537
732 3644
732 3793
732 4893
732 6984
732 7016
732 7080
732 7357
732 7926
732 8880
732 9321
732 9450
732 9900
733 1007
733 1089
733 1231
733 1477
733 2819
733 3217
733 3417
733 4441
733 5603
733 5627
733 7247
733 8312
733 9822
734 831
734 881
734 1047
734 2981
734 3500
734 4668
734 6046
734 6086
734 6805
734 7468
734 7558
734 8685
735 953
735 2395
735 2498
735 4731
735 5314
735 5326
735 6993
735 7028
735 7437
735 7592
735 7637
735 8134
735 8361
735 9243
735 9678
736 769
736 1361
736 1573
736 1670
736 1906
736 2124
736 2258
736 2848
736 3708
736 3862
736 3934
736 4111
736 4565
736 5309
736 6268
736 6272
736 6631
736 6674
736 7197
736 7396
736 7698
736 8537
736 8915
736 9072
736 9537
737 831
737 956
737 1073
737 1166
737 1228
737 2083
737 2354
737 2695
737 2815
737 3086
737 3273
737 3287
737 3381
737 4633
737 6439
737 6517
737 8169
738 1102
738 1414
738 1584
738 1941
738 2139
738 2280
738 2406
738 2580
738 2925
738 2926
738 2999
738 3125
738 3356
738 3600
738 3952
738 4342
738 4691
738 5388
738 5688
738 5911
738 5933
738 6308
738 6646
738 7097
738 7104
738 7120
738 7855
738 8104
738 8554
738 9901
739 908
739 919
739 1660
739 2390
739 2763
739 2802
739 3033
739 3077
739 3254
739 3846
739 4018
739 4227
739 5423
739 5921
739 6148
739 7469
739 8127
739 8482
739 8647
740 789
740 807
740 944
740 963
740 1160
740 1194
740 1218
740 1243
740 1251
740 1552
740 1555
740 1719
740 2015
740 2185
740 2454
740 2797
740 2914
740 3053
740 3062
740 3149
740 3650
740 4187
740 4196
740 4393
740 4414
740 4416
740 4846
740 5137
740 5227
740 5587
740 5601
740 5872
740 6117
740 6144
740 6550
740 6947
740 7491
740 7791
740 8109
740 8651
740 8703
740 8753
740 8790
740 8887
740 8982
740 9126
740 9201
740 9670
741 796
741 1174
741 1537
741 1599
741 1773
741 2145
741 3026
741 3055
741 3243
741 3379
741 3727
741 3841
741 4642
741 5009
741 5526
741 7546
741 8352
741 8759
741 8890
741 9757
742 1099
742 1427
742 1449
742 1679
742 1883
742 2065
742 2144
742 2728
742 3147
742 3472
742 4745
742 5732
742 5871
742 6950
742 7209
742 7363
742 8476
742 8480
742 9944
743 822
743 1695
743 2046
743 2736
743 3043
743 3070
743 4251
743 4792
743 4861
743 5158
743 5665
743 5900
743 6292
743 6342
743 6499
743 6509
743 6676
743 6717
743 7471
743 8284
743 9092
743 9155
743 9451
743 9534
743 9727
744 923
744 1148
744 2067
744 2311
744 3184
744 4014
744 5090
744 5200
744 5210
744 5598
744 5619
744 6838
744 7417
744 7745
744 8307
744 9088
744 9213
744 9506
745 780
745 790
745 803
745 807
745 814
745 952
745 1022
745 1025
745 1100
745 1395
745 1691
745 1728
745 1813
745 1815
745 2006
745 2009
745 2398
745 2534
745 3167
745 3171
745 3679
745 3949
745 4664
745 4674
745 6512
745 6716
745 6862
745 7073
745 7320
745 8152
745 8493
745 8700
745 8964
745 9096
745 9180
746 805
746 1403
746 1501
746 1619
746 1691
746 2229
746 2326
746 2740
746 3407
746 4530
746 4566
746 4963
746 5643
746 5923
746 6403
746 7365
746 7675
746 9726
747 1531
747 1584
747 2034
747 2089
747 2749
747 2803
747 2948
747 3554
747 3927
747 5115
747 5231
747 5457
747 6612
747 6755
747 6926
747 7080
747 8514
747 9049
747 9250
747 9661
748 892
748 1028
748 1244
748 1370
748 1443
748 1653
748 1784
748 2354
748 2613
748 2808
748 2906
748 3419
748 3560
748 3935
748 4216
748 4296
748 4533
748 4946
748 5354
748 5942
748 6339
748 6621
748 6994
748 7436
748 7789
748 8192
748 8870
748 9230
748 9906
749 886
749 1017
749 1215
749 1557
749 1808
749 1993
749 2395
749 2900
749 3207
749 3252
749 3276
749 3688
749 3906
749 3957
749 4029
749 4285
749 4472
749 4668
749 4712
749 4918
749 5270
749 5388
749 5748
749 5908
749 6039
749 6329
749 6419
749 6470
749 6778
749 6780
749 7196
749 7486
749 7813
749 8116
749 9479
750 1003
750 1448
750 2338
750 2753
750 3843
750 4208
750 4247
750 4933
750 5685
750 6343
750 7524
750 9464
750 9880
751 786
751 968
751 1260
751 1279
751 1292
751 1319
751 1341
751 1675
751 1725
751 1865
751 2152
751 2217
751 2397
751 2531
751 3188
751 3267
751 3403
751 3943
751 4028
751 4169
751 4471
751 5100
751 5712
751 5959
751 6320
751 6331
751 6743
751 6775
751 7371
751 7452
751 8637
751 9109
751 9863
752 823
752 870
752 884
752 984
752 1417
752 1703
752 2207
752 2348
752 2355
752 2681
752 2684
752 2935
752 3092
752 3334
752 4390
752 4561
752 4852
752 4986
752 5115
752 5121
752 5570
752 5571
752 5930
752 6047
752 7350
752 7354
752 7452
752 7593
752 7818
752 8494
752 8526
752 8786
752 8925
752 9103
752 9509
752 9608
752 9850
752 9854
752 9922
753 903
753 976
753 985
753 1275
753 1302
753 1398
753 1414
753 1630
753 1643
753 1732
753 1888
753 2254
753 2511
753 2516
753 2833
753 2931
753 3044
753 3049
753 3281
753 3452
753 3674
753 3778
753 3805
753 3944
753 4337
753 5111
753 5143
753 5835
753 6362
753 6413
753 6521
753 6642
753 6977
753 7748
753 7812
753 7873
753 8033
753 8988
753 9759
754 855
754 1019
754 1211
754 1229
754 1265
754 1272
754 1438
754 1484
754 1529
754 1601
754 2140
754 2764
754 2794
754 2838
754 2944
754 3245
754 3248
754 3422
754 3615
754 3650
754 3825
754 3985
754 4269
754 4323
754 4722
754 4869
754 5618
754 6320
754 6889
754 7086
754 7331
754 7568
754 7976
754 8295
754 8782
754 8955
754 9100
754 9426
754 9659
754 9700
755 1163
755 1288
755 1299
755 1686
755 1949
755 2383
755 3157
755 3431
755 4774
755 4833
755 5279
755 5547
755 6026
755 6130
755 7090
755 7304
755 9141
756 775
756 1084
756 1393
756 1695
756 1835
756 1977
756 2104
756 2167
756 2262
756 2537
756 2823
756 2976
756 3100
756 3148
756 3346
756 3398
756 3407
756 3997
756 4174
756 4618
756 4848
756 4879
756 5232
756 5581
756 6704
756 6765
756 6830
756 7110
756 7166
756 7309
756 9042
756 9169
756 9362
756 9424
756 9619
756 9668
756 9848
756 9882
756 9991
757 1024
757 1509
757 1607
757 2123
757 2711
757 2795
757 3232
757 3728
757 4467
757 5187
757 7881
757 8224
758 790
758 851
758 929
758 1071
758 1325
758 1461
758 1621
758 1643
758 1743
758 1854
758 2344
758 2765
758 3200
758 3425
758 4145
758 4342
758 4590
758 4975
758 5692
758 6085
758 6174
758 6304
758 6329
758 6878
758 7806
758 8458
758 8619
758 8659
758 8848
759 900
759 946
759 1089
759 1646
759 1820
759 2011
759 2118
759 2198
759 2948
759 3132
759 4594
759 4783
759 5252
759 5421
759 6548
759 6766
759 7264
759 7316
759 7695
759 8505
759 8622
760 892
760 1327
760 1583
760 1793
760 1858
760 1985
760 2366
760 2762
760 3344
760 3675
760 3766
760 4709
760 5022
760 5208
760 5776
760 5848
760 6037
760 7434
760 7922
760 8640
760 9421
760 9622
761 934
761 1022
761 1039
761 1225
761 1293
761 1445
761 1515
761 1655
761 1774
761 1905
761 2208
761 2337
761 2552
761 2664
761 2997
761 3228
761 3395
761 3768
761 3897
761 4146
761 4198
761 4268
761 4342
761 4592
761 4707
761 4842
761 4923
761 5446
761 5474
761 5608
761 5801
761 5894
761 5953
761 6343
761 6392
761 6648
761 6706
761 7317
761 7321
761 7687
761 7720
761 8301
761 8392
761 8819
761 8853
761 8942
761 8959
761 9194
761 9394
762 1161
762 1329
762 1595
762 1915
762 1964
762 2090
762 2420
762 2502
762 3412
762 3626
762 3765
762 4514
762 4976
762 5878
762 6019
762 6074
762 6679
762 6870
762 7390
762 7499
762 9894
763 915
763 1012
763 1024
763 1969
763 2014
763 2143
763 2220
763 2841
763 2954
763 3439
763 3508
763 4036
763 4099
763 4127
763 4350
763 4399
763 4405
763 5467
763 5606
763 5883
763 6775
763 7693
763 8066
763 8146
763 8301
763 8803
763 9214
764 1083
764 1203
764 1269
764 1359
764 1515
764 1552
764 1634
764 1897
764 1954
764 2036
764 2522
764 2767
764 2828
764 2957
764 3040
764 3915
764 4158
764 4426
764 4496
764 5341
764 5746
764 5823
764 5877
764 6376
764 8852
764 8971
764 9199
765 776
765 824
765 827
765 1012
765 1030
765 1309
765 1311
765 1455
765 1572
765 1573
765 1661
765 1787
765 2158
765 2274
765 3273
765 3601
765 3613
765 4074
765 4139
765 4433
765 4973
765 5114
765 5344
765 5463
765 5508
765 5719
765 6901
765 8163
765 9370
766 1029
766 1262
766 1554
766 1852
766 1904
766 2144
766 2292
766 2381
766 2507
766 3070
766 3178
766 4206
766 5804
766 9978
767 778
767 871
767 888
767 1040
767 1550
767 1950
767 2945
767 4078
767 4108
767 5329
767 5497
767 6195
767 6640
767 7050
767 7195
767 7298
767 7390
767 7700
767 7839
767 9544
767 9942
768 769
768 1125
768 1197
768 1205
768 1494
768 1801
768 1925
768 2042
768 2776
768 2789
768 3188
768 3422
768 3777
768 4018
768 4149
768 4851
768 5296
768 5710
768 5975
768 6071
768 7254
768 7260
768 8798
768 9394
769 789
769 1053
769 1094
769 1216
769 1507
769 1858
769 1965
769 3086
769 3328
769 3747
769 3778
769 3802
769 4025
769 4404
769 4675
769 4810
769 4816
769 5990
769 6280
769 6311
769 6427
769 6663
769 6853
769 7944
769 7988
769 8053
769 8441
769 9004
769 9255
769 9256
769 9521
769 9689
769 9888
770 984
770 1002
770 1030
770 1603
770 1677
770 1714
770 1849
770 2032
770 2080
770 2564
770 2595
770 2763
770 2891
770 2936
770 3084
770 3144
770 3442
770 3676
770 4556
770 4589
770 4674
770 4877
770 5178
770 5249
770 5359
770 5882
770 5935
770 6222
770 6416
770 6652
770 7056
770 7163
770 7474
770 7661
770 8109
770 8322
770 8423
770 8740
770 9113
770 9276
770 9383
770 9529
771 962
771 1209
771 1527
771 3304
771 3695
771 3752
771 6238
771 7452
771 8785
772 820
772 3743
772 5304
772 5574
772 5636
772 8036
772 8256
772 9976
773 799
773 858
773 1216
773 1292
773 1479
773 1486
773 1494
773 1674
773 1754
773 1874
773 2117
773 2154
773 2536
773 3321
773 3409
773 3641
773 3850
773 4224
773 4272
773 4282
773 4660
773 5279
773 5576
773 5872
773 6015
773 6257
773 6566
773 6615
773 7031
773 7033
773 7973
773 8978
773 9304
774 1076
774 1509
774 1770
774 2838
774 3023
774 3124
774 3161
774 4575
774 4765
774 5427
774 6184
774 6339
774 6711
774 7575
774 7964
774 8289
774 8924
774 9548
775 871
775 991
775 1373
775 1505
775 1557
775 1667
775 1668
775 1728
775 2009
775 2500
775 2719
775 3758
775 3788
775 3816
775 4029
775 4404
775 4804
775 5392
775 5394
775 7165
775 7470
775 8300
775 9521
775 9654
776 895
776 1327
776 2537
776 2580
776 3892
776 3912
776 4697
776 4800
776 5050
776 5102
776 5434
776 6219
776 6470
776 6812
776 7020
776 7999
776 9639
776 9845
777 924
777 1012
777 1116
777 1209
777 1465
777 1538
777 1635
777 1640
777 1844
777 1869
777 1881
777 2098
777 2099
777 2196
777 2484
777 2669
777 2888
777 2962
777 3282
777 3457
777 3474
777 3819
777 4082
777 4338
777 4386
777 4519
777 4896
777 5470
777 6100
777 6263
777 6928
777 7587
777 8613
777 8888
777 9058
777 9574
778 845
778 923
778 1054
778 1095
778 2352
778 2918
778 3234
778 3534
778 3875
778 3890
778 3980
778 4147
778 4673
778 4708
778 5313
778 5451
778 5482
778 5519
778 5970
778 6443
778 6992
778 7004
778 7434
778 7709
778 8038
778 8769
778 9040
778 9581
778 9818
778 9990
779 861
779 865
779 877
779 1184
779 1212
779 1263
779 1399
779 1558
779 1625
779 1908
779 2315
779 2470
779 2653
779 3316
779 3720
779 4046
779 4121
779 4147
779 4162
779 4351
779 4560
779 5120
779 5976
779 6074
779 6329
779 6467
779 7556
779 7811
779 7985
779 8397
779 8578
779 8702
779 8776
779 3120
780 806
780 1464
780 1611
780 1767
780 2049
780 2053
780 2150
780 2223
780 2289
780 2980
780 3321
780 3502
780 5117
780 6078
780 6276
780 6561
780 7522
780 7796
780 8092
780 8417
780 9294
780 9860
781 883
781 894
781 1347
781 2217
781 3051
781 3780
781 3852
781 4354
781 5151
781 5859
781 6129
781 6394
781 8601
781 9743
782 829
782 1133
782 1330
782 1474
782 1976
782 2326
782 3540
782 3974
782 4021
782 4034
782 4790
782 5413
782 5503
782 5617
782 5825
782 6296
782 6904
782 7920
782 8394
782 8417
782 9226
782 9703
782 9736
782 9830
783 924
783 1391
783 1462
783 1519
783 1571
783 1623
783 2256
783 2579
783 2822
783 3058
783 3074
783 3680
783 6376
783 6552
783 7166
783 8113
783 8951
783 8971
784 1547
784 1845
784 2038
784 2080
784 2095
784 2470
784 2595
784 2939
784 3170
784 4585
784 5114
784 5338
784 6563
784 6622
784 7669
784 8933
784 9095
784 9660
784 9725
785 922
785 947
785 980
785 1087
785 1213
785 1451
785 1470
785 1471
785 1484
785 1510
785 1532
785 1750
785 1909
785 1917
785 1952
785 2104
785 2236
785 2559
785 2654
785 2921
785 2957
785 2973
785 2994
785 3358
785 3613
785 3819
785 3836
785 3860
785 4091
785 4422
785 4911
785 5188
785 5303
785 6239
785 6501
785 6590
785 6619
785 6942
785 7195
785 7701
785 7889
785 8111
785 8462
785 8509
785 8612
785 8798
785 9107
785 9682
785 9713
785 9942
786 918
786 1147
786 1771
786 3094
786 3386
786 3834
786 4108
786 4583
786 5774
786 6245
786 6455
786 6560
786 6593
786 6805
786 6843
786 7041
786 8131
786 9513
787 832
787 848
787 939
787 1017
787 1022
787 1187
787 1288
787 1290
787 1603
787 1825
787 2008
787 2294
787 2688
787 2841
787 2869
787 3394
787 3625
787 3701
787 4426
787 4927
787 5140
787 5886
787 6238
787 6430
787 6491
787 6823
787 7312
787 7390
787 7510
787 8009
787 8065
787 8325
787 9120
787 9186
787 9528
787 9788
787 9812
788 868
788 880
788 952
788 1072
788 1505
788 1587
788 1595
788 1643
788 1729
788 1782
788 1981
788 2002
788 2296
788 2583
788 3049
788 3187
788 3863
788 3898
788 4994
788 5787
788 6692
788 7454
788 7488
788 7537
788 7916
788 8205
788 8407
788 8829
788 8889
788 8934
788 9306
789 809
789 836
789 855
789 861
789 955
789 1604
789 1765
789 1898
789 1931
789 2035
789 3773
789 3787
789 3803
789 4026
789 4306
789 4600
789 5869
789 5884
789 7450
789 7631
789 7673
789 7701
789 7810
789 8605
789 8628
789 8857
789 9004
789 9389
789 9549
789 9967
789 9997
790 908
790 969
790 1333
790 2217
790 2749
790 2975
790 3050
790 3051
790 3199
790 3637
790 4136
790 4803
790 4852
790 5315
790 6124
790 6611
790 6882
790 7179
790 7610
790 7878
790 8080
790 8462
790 8532
790 9053
790 9252
790 9790
791 915
791 1404
791 1603
791 1682
791 1847
791 1930
791 2915
791 2918
791 3375
791 3958
791 4288
791 4635
791 5444
791 5649
791 6796
791 7470
791 7772
791 8063
792 910
792 1058
792 1067
792 1746
792 1989
792 1999
792 2908
792 3208
792 4660
792 5300
792 5387
792 7447
792 8603
793 808
793 886
793 1021
793 1085
793 1175
793 1604
793 1692
793 1827
793 1896
793 2634
793 3264
793 3293
793 3761
793 5213
793 5488
793 5951
793 6822
793 9386
794 1160
794 1167
794 1502
794 1709
794 1836
794 1912
794 1913
794 2137
794 2325
794 2334
794 2560
794 3162
794 3247
794 4132
794 4318
794 4616
794 4806
794 4934
794 5043
794 5498
794 6055
794 6076
794 6226
794 6247
794 6788
794 7000
794 7571
794 8029
794 8487
794 9143
794 9935
795 802
795 842
795 1096
795 1119
795 1625
795 1809
795 2005
795 2323
795 2359
795 2671
795 3091
795 3248
795 3644
795 3672
795 4365
795 4835
795 5034
795 5619
795 5841
795 6278
795 6428
795 6696
795 7108
795 7895
795 8160
795 8196
795 8901
795 9110
795 9470
795 9949
796 1135
796 1377
796 1900
796 2000
796 2004
796 2324
796 2361
796 2860
796 2971
796 4080
796 4680
796 4992
796 8697
796 9273
797 993
797 1054
797 1487
797 1526
797 1578
797 1716
797 1978
797 2248
797 2397
797 2428
797 2443
797 2460
797 3259
797 3628
797 4077
797 4254
797 4782
797 5654
797 6128
797 6870
797 7523
797 7708
797 8871
798 987
798 1176
798 1315
798 1758
798 1845
798 1894
798 2674
798 3024
798 3255
798 3271
798 3670
798 4778
798 4833
798 5345
798 6576
798 6754
798 6908
798 7150
798 7730
798 7751
798 7797
798 8054
798 8274
798 8279
798 8421
798 8875
798 8995
798 9430
799 1041
799 1052
799 1076
799 1107
799 1145
799 1234
799 1354
799 1433
799 1592
799 1830
799 1899
799 1933
799 2547
799 2928
799 3372
799 3432
799 3576
799 3693
799 3778
799 4560
799 4667
799 5229
799 5570
799 5575
799 5697
799 6070
799 6312
799 6461
799 6775
799 6867
799 7074
799 7111
799 7165
799 7385
799 7438
799 8186
799 8270
799 8367
799 8833
799 8847
799 9041
799 9598
799 9817
799 9873
800 1271
800 1511
800 1582
800 1679
800 1815
800 1831
800 3104
800 3629
800 4246
800 4480
800 4836
800 4860
800 5459
800 5954
800 6471
800 6513
800 7964
800 8365
800 9308
800 9504
800 9674
801 1002
801 1123
801 1333
801 1447
801 1608
801 1651
801 2281
801 2300
801 2639
801 2672
801 2737
801 3373
801 3958
801 4025
801 4053
801 4239
801 4637
801 4689
801 5811
801 5892
801 8624
801 8713
801 9932
801 9973
802 1194
802 1245
802 1320
802 1330
802 1429
802 1478
802 1592
802 1843
802 1863
802 2012
802 2259
802 2486
802 2560
802 2830
802 2969
802 2970
802 3047
802 3962
802 4018
802 4049
802 4142
802 4286
802 4723
802 5098
802 5152
802 5339
802 5722
802 5869
802 5924
802 5944
802 6086
802 6727
802 6742
802 6988
802 7229
802 7355
802 7413
802 7624
802 7675
802 8339
802 8768
802 9126
802 9137
802 9850
803 855
803 1073
803 1294
803 1421
803 1982
803 2364
803 2497
803 2646
803 2860
803 2867
803 3035
803 3389
803 3955
803 4254
803 4497
803 5431
803 5454
803 5736
803 6605
803 7282
803 7318
803 7515
803 7793
803 9380
803 9587
804 821
804 900
804 919
804 1067
804 1318
804 1425
804 1674
804 1884
804 2189
804 2276
804 2304
804 2362
804 2371
804 2493
804 2955
804 3071
804 3154
804 3239
804 3524
804 3554
804 3620
804 3669
804 4119
804 4237
804 4377
804 4403
804 4523
804 4640
804 4699
804 4755
804 5593
804 5602
804 6021
804 6759
804 6857
804 7827
804 7851
804 7854
804 7867
804 8876
804 8944
804 9282
804 9394
804 9859
805 1937
805 2204
805 2966
805 3732
805 4034
805 6181
805 6489
805 6630
805 8254
805 9112
805 9860
806 928
806 1148
806 1211
806 1363
806 1456
806 1636
806 2165
806 3131
806 3291
806 3406
806 3563
806 3742
806 4096
806 4725
806 6638
806 7036
806 8207
806 8293
806 8717
806 9183
806 9594
807 1301
807 1626
807 2597
807 3276
807 4190
807 4408
807 5153
807 5487
807 5691
807 6388
807 6748
807 6769
807 8712
807 9135
808 860
808 921
808 1005
808 1086
808 1113
808 1128
808 1274
808 1421
808 1611
808 2308
808 2403
808 3098
808 4198
808 4280
808 4505
808 5462
808 5745
808 6233
808 6612
808 6624
808 6739
808 6923
808 7287
808 7463
808 7596
808 9109
808 9185
808 9668
809 1125
809 1204
809 1853
809 2473
809 3524
809 4778
809 5113
809 5550
809 6017
809 7340
809 8325
809 8832
810 950
810 1018
810 1057
810 1093
810 1337
810 1339
810 1419
810 1454
810 1944
810 1996
810 2143
810 2260
810 2403
810 2450
810 2489
810 2492
810 2630
810 2862
810 2967
810 3041
810 3137
810 3146
810 3152
810 3175
810 3366
810 3672
810 3774
810 3775
810 3827
810 3967
810 3977
810 4257
810 4529
810 4710
810 4714
810 4824
810 5235
810 5419
810 5454
810 5517
810 5629
810 5648
810 5738
810 5994
810 6074
810 7159
810 7430
810 7459
810 7635
810 7666
810 7671
810 8001
810 8009
810 8279
810 8359
810 8454
810 8681
810 8921
810 9130
810 9172
810 9333
811 856
811 943
811 1095
811 1617
811 1711
811 2087
811 2346
811 2364
811 2750
811 2963
811 3043
811 3590
811 3623
811 6299
811 6323
811 6397
811 6943
811 7455
811 8273
812 1271
812 1451
812 1477
812 1500
812 2602
812 2629
812 2987
812 4018
812 4075
812 5839
812 6185
812 7926
812 8357
813 834
813 861
813 1103
813 1161
813 1172
813 1196
813 1292
813 1371
813 1423
813 1692
813 1881
813 2154
813 2341
813 2525
813 2560
813 2766
813 2845
813 2959
813 3114
813 3473
813 3482
813 3564
813 4020
813 4439
813 4460
813 4698
813 4888
813 5014
813 5125
813 5227
813 5907
813 7861
813 8407
813 8508
813 9011
813 9191
813 9538
813 9690
814 898
814 1143
814 1242
814 1285
814 1337
814 1839
814 1861
814 1909
814 1975
814 1978
814 2101
814 2326
814 2535
814 2754
814 2790
814 2823
814 2930
814 3010
814 3719
814 3830
814 3900
814 4170
814 4390
814 4518
814 4588
814 4676
814 4744
814 4890
814 4973
814 5082
814 5088
814 5189
814 5557
814 5760
814 5763
814 5771
814 6590
814 6685
814 6780
814 7378
814 7731
814 7751
814 7819
814 8373
814 8787
814 9113
814 9298
814 9368
814 9391
815 835
815 852
815 883
815 1048
815 1063
815 1170
815 1249
815 1691
815 2161
815 2354
815 2691
815 2914
815 2981
815 4375
815 4439
815 5126
815 5490
815 6142
815 6750
815 6922
815 7462
815 8590
815 9115
815 9299
815 9356
816 1708
816 1717
816 1847
816 2351
816 3233
816 3290
816 3555
816 4251
816 4357
816 5352
816 6298
816 6482
816 6665
816 7215
816 7411
816 7567
816 7760
816 7775
816 7861
816 7953
816 8075
816 9175
816 9440
817 836
817 900
817 961
817 1324
817 1818
817 1894
817 2074
817 2100
817 2132
817 3196
817 3810
817 4824
817 5154
817 5323
817 5449
817 5608
817 8399
817 8416
817 8905
818 851
818 926
818 1027
818 1151
818 1276
818 1282
818 1312
818 1349
818 2077
818 2459
818 2702
818 2938
818 3018
818 3590
818 3599
818 3949
818 4273
818 4294
818 5067
818 5100
818 5558
818 6649
818 7008
818 7366
818 7702
818 9249
818 9771
818 9909
819 834
819 890
819 1176
819 1242
819 1398
819 1610
819 1829
819 2097
819 2670
819 2732
819 2881
819 3813
819 3867
819 4057
819 6666
819 8425
820 861
820 899
820 922
820 926
820 1002
820 1189
820 1225
820 1360
820 1379
820 1564
820 1672
820 1809
820 1951
820 2172
820 2179
820 2305
820 2432
820 2481
820 2507
820 2511
820 3094
820 3160
820 3533
820 3742
820 3800
820 3957
820 4365
820 4455
820 4612
820 4896
820 5339
820 6830
820 7015
820 7087
820 7374
820 7907
820 8659
820 8773
820 9091
820 9650
820 9654
821 909
821 977
821 1122
821 1132
821 1317
821 1367
821 1461
821 1885
821 2176
821 3096
821 4003
821 4256
821 4482
821 5172
821 5302
821 5885
821 6429
821 6847
821 7168
821 7386
821 7492
821 7860
821 8851
821 9751
822 992
822 1161
822 1341
822 1357
822 2394
822 2823
822 3475
822 4089
822 4280
822 4589
822 4823
822 6078
822 6389
822 6586
822 7839
822 7995
822 8058
822 8455
822 9947
823 866
823 1351
823 1421
823 2169
823 3706
823 4144
823 4249
823 4465
823 4928
823 7344
823 8292
823 8453
823 8624
823 8736
824 856
824 1675
824 1685
824 2113
824 2163
824 2170
824 2411
824 2554
824 2622
824 2865
824 2915
824 2973
824 4069
824 4138
824 4561
824 4764
824 4926
824 5180
824 5650
824 6152
824 6242
824 6431
824 6541
824 7065
824 8333
824 9259
824 9482
824 9495
824 9755
825 858
825 1075
825 1119
825 1204
825 1295
825 1656
825 1981
825 2178
825 2895
825 2913
825 3563
825 4150
825 6816
825 6969
826 931
826 1002
826 1260
826 2142
826 2400
826 3159
826 3322
826 3459
826 4290
826 4904
826 4964
826 6367
826 7725
826 8429
826 8727
827 854
827 870
827 897
827 929
827 1173
827 1223
827 1468
827 1554
827 1962
827 1990
827 3088
827 3210
827 3224
827 3351
827 3359
827 4347
827 4600
827 5303
827 5312
827 5930
827 5935
827 6089
827 6596
827 7211
827 7377
827 7662
827 7847
827 7922
827 7991
827 9154
827 9525
828 1014
828 1040
828 1084
828 1137
828 1158
828 1455
828 1699
828 2542
828 2866
828 3072
828 3143
828 3163
828 3520
828 3657
828 3720
828 4051
828 4364
828 4649
828 4680
828 5536
828 5929
828 6190
828 6312
828 6586
828 7460
828 7516
828 8607
828 8889
829 876
829 964
829 973
829 1195
829 1474
829 1573
829 2038
829 2039
829 2185
829 3132
829 3327
829 3381
829 4591
829 5237
829 5319
829 5733
829 6949
829 6979
829 7224
829 7806
829 7831
829 8191
829 8488
829 9256
829 9345
829 9644
830 1341
830 1591
830 1774
830 3259
830 3353
830 3866
830 4310
830 4791
830 5393
830 5460
830 5911
830 6723
830 6751
830 7351
830 9073
830 9826
831 1199
831 1439
831 1491
831 1523
831 1548
831 1666
831 1698
831 1724
831 1884
831 2006
831 2051
831 2377
831 3646
831 4294
831 4336
831 5060
831 5078
831 5244
831 5731
831 5778
831 6187
831 6342
831 6448
831 6667
831 7617
831 8654
832 1116
832 1196
832 1223
832 1280
832 1531
832 1563
832 2127
832 2192
832 2218
832 2423
832 2581
832 2801
832 3191
832 3663
832 3811
832 3889
832 4260
832 4469
832 4600
832 4820
832 4955
832 5496
832 5586
832 5631
832 5814
832 5977
832 7809
832 8143
832 8503
832 8603
832 8852
832 9496
832 9580
833 866
833 955
833 1460
833 1482
833 1647
833 1673
833 1755
833 1792
833 1865
833 2261
833 2370
833 2684
833 2771
833 2841
833 2975
833 3942
833 4445
833 4628
833 4713
833 4849
833 4988
833 5121
833 5711
833 5862
833 6473
833 6973
833 7536
834 841
834 912
834 927
834 1004
834 1042
834 1186
834 1228
834 1286
834 1362
834 1390
834 1450
834 1567
834 1580
834 1680
834 1758
834 1791
834 2137
834 2458
834 2559
834 3200
834 3216
834 3651
834 3881
834 4317
834 4716
834 4883
834 4916
834 5000
834 5145
834 5204
834 5831
834 5974
834 6112
834 6382
834 6420
834 6520
834 6660
834 6916
834 7819
834 8120
834 8860
834 9451
834 9560
834 9696
834 9838
835 1149
835 1185
835 1669
835 1697
835 1702
835 2022
835 2304
835 2507
835 2784
835 3368
835 3406
835 5444
835 6412
835 6653
835 6710
835 6940
835 7402
835 7489
835 7903
835 9132
835 9478
835 9694
835 9992
836 869
836 894
836 1075
836 1092
836 1275
836 1442
836 1463
836 1632
836 1729
836 1791
836 2140
836 2172
836 2739
836 2766
836 2977
836 3735
836 3926
836 4684
836 5206
836 5230
836 5660
836 5768
836 6152
836 6253
836 6297
836 6684
836 6997
836 7138
836 7228
836 8711
836 9270
836 9440
836 9523
836 9727
836 9765
837 940
837 1052
837 1586
837 1840
837 2216
837 2497
837 2849
837 3240
837 3637
837 3926
837 4149
837 4403
837 5129
837 5711
837 6384
837 6859
837 7805
837 7876
838 930
838 946
838 1206
838 1320
838 1869
838 1933
838 2463
838 2576
838 2880
838 3279
838 3662
838 3741
838 5336
838 6048
838 6409
838 6687
838 6888
838 8024
838 8277
838 9158
838 9242
838 9793
839 884
839 1804
839 1817
839 2200
839 2289
839 2689
839 3212
839 3788
839 3800
839 4513
839 4535
839 5431
839 6363
839 7426
839 8650
839 8763
840 990
840 1034
840 1331
840 1383
840 1417
840 1512
840 1529
840 1684
840 1938
840 2091
840 2229
840 2309
840 3458
840 3876
840 3925
840 4712
840 4778
840 5008
840 5227
840 5886
840 5900
840 6173
840 6219
840 6262
840 6720
840 6816
840 7474
840 7724
840 7932
840 8011
840 8335
840 8580
840 8730
840 9179
840 9272
840 9489
840 9787
841 924
841 1230
841 1351
841 1478
841 2098
841 2135
841 2215
841 2227
841 2362
841 2601
841 2736
841 4203
841 4205
841 4562
841 4744
841 5128
841 5910
841 6097
841 6314
841 7105
841 7647
841 8238
841 8717
842 1000
842 1159
842 1210
842 1388
842 1407
842 1905
842 2130
842 2210
842 2296
842 2701
842 2705
842 2827
842 2862
842 3065
842 3149
842 3274
842 3295
842 3325
842 3699
842 3742
842 4030
842 4063
842 4085
842 4447
842 4882
842 5091
842 6210
842 6462
842 6733
842 6997
842 7183
842 7870
842 8148
842 8760
842 9136
842 9741
842 9773
843 901
843 986
843 1800
843 2171
843 2201
843 2210
843 2772
843 3334
843 4367
843 4464
843 4565
843 5040
843 6355
843 6432
843 6874
843 7579
843 8362
843 8568
843 8616
843 9355
843 9603
843 9814
843 9852
844 1057
844 1404
844 1611
844 1806
844 1839
844 1840
844 1880
844 1943
844 2286
844 2317
844 2431
844 2724
844 2881
844 2994
844 3017
844 3094
844 3246
844 3696
844 3703
844 3740
844 4133
844 4271
844 4341
844 4376
844 4882
844 5189
844 5336
844 5404
844 5537
844 5768
844 5849
844 6111
844 6263
844 6378
844 6645
844 6777
844 6795
844 6994
844 7026
844 7717
844 7852
844 7865
844 8366
844 8898
844 9416
844 9448
844 9473
844 9607
844 9999
845 1932
845 2285
845 4064
845 4257
845 4479
845 4653
845 4863
845 5885
845 7161
845 8949
845 9898
846 912
846 1103
846 1316
846 1387
846 1599
846 1653
846 1667
846 2612
846 3009
846 3020
846 3397
846 5164
846 5399
846 5788
846 5933
846 6182
846 6766
846 6796
846 6905
846 7949
846 8395
846 8489
846 8603
846 9042
846 9980
847 855
847 1108
847 1135
847 1253
847 1518
847 1570
847 1853
847 1973
847 2321
847 2959
847 3473
847 3739
847 3874
847 4187
847 4271
847 5229
847 6100
847 7220
847 8476
847 8512
847 9216
847 9555
847 9637
847 9686
848 2259
848 3147
848 3522
848 3803
848 4310
849 907
849 1011
849 1036
849 1205
849 1249
849 1543
849 1788
849 2444
849 3078
849 3525
849 4071
849 4779
849 4902
849 4969
849 5398
849 5684
849 6155
849 6263
849 6321
849 6739
849 6858
849 6899
849 7328
849 7630
849 8097
849 8259
849 9061
849 9155
849 9168
850 946
850 988
850 1097
850 1192
850 1218
850 1328
850 1504
850 1936
850 2089
850 2875
850 3328
850 3424
850 4065
850 4210
850 4859
850 4872
850 5782
850 6279
850 6773
850 7383
850 7733
850 8550
850 8566
850 9752
850 9896
851 1122
851 1338
851 1662
851 2387
851 2535
851 2602
851 2687
851 2879
851 3104
851 3466
851 3575
851 3908
851 4356
851 4732
851 5594
851 5822
851 6479
851 6487
851 6522
851 6680
851 7007
851 7197
851 8282
851 9382
852 1127
852 1455
852 1503
852 1575
852 1731
852 1829
852 2084
852 2510
852 2737
852 2999
852 3004
852 3767
852 3920
852 4208
852 4363
852 4465
852 5218
852 5688
852 5731
852 5777
852 6215
852 6323
852 7095
852 7140
852 7479
852 7803
852 7924
852 7969
852 8508
852 9422
852 9455
853 1072
853 1119
853 1277
853 1400
853 1534
853 1592
853 3716
853 3890
853 4182
853 4303
853 4414
853 5165
853 5359
853 6616
853 6681
853 6912
853 7289
853 7764
853 9015
853 9327
853 9386
853 9994
854 1125
854 1703
854 2257
854 2947
854 2952
854 3197
854 3765
854 4031
854 4460
854 4564
854 4620
854 4897
854 5418
854 5913
854 7643
854 9410
854 4574
855 870
855 934
855 1199
855 1316
855 1407
855 1422
855 1490
855 1880
855 2189
855 2694
855 2871
855 3493
855 3880
855 5122
855 5319
855 5522
855 5877
855 6053
855 6601
855 7003
855 7470
855 7652
855 8396
855 9230
855 9326
855 9361
856 1590
856 2396
856 2677
856 2844
856 3307
856 4475
856 6284
856 6921
856 7429
856 8576
856 9360
857 934
857 1235
857 1527
857 1980
857 2159
857 2174
857 2937
857 3001
857 3130
857 3467
857 4070
857 4387
857 5043
857 5194
857 5724
857 5839
857 6528
857 6817
858 1246
858 1314
858 2427
858 2749
858 2798
858 2971
858 3221
858 3375
858 3471
858 3513
858 3979
858 4049
858 4609
858 5128
858 5426
858 5900
858 6475
858 7090
858 7164
858 7553
858 7659
858 7957
858 9055
858 9057
858 9408
858 9850
859 1020
859 1060
859 1265
859 1282
859 1436
859 1710
859 2101
859 2120
859 2408
859 3696
859 4325
859 4902
859 4957
859 6130
859 6147
859 6577
859 7097
859 8321
859 8442
859 9036
859 9314
860 1294
860 1409
860 1462
860 1966
860 2272
860 2668
860 2689
860 2701
860 2705
860 2713
860 2725
860 4074
860 4188
860 4201
860 4339
860 5754
860 6054
860 6382
860 7013
860 7389
860 8776
861 936
861 1082
861 1319
861 1380
861 1457
861 1576
861 1693
861 1855
861 1892
861 2183
861 2460
861 2525
861 2737
861 2945
861 3199
861 3413
861 4747
861 4893
861 5445
861 5686
861 5766
861 6600
861 6702
861 6874
861 7095
861 7151
861 7479
861 7770
861 8105
861 8636
861 9404
862 938
862 1117
862 1391
862 1599
862 1962
862 2955
862 3484
862 3582
862 3683
862 4172
862 5025
862 5252
862 5443
862 5660
862 5820
862 6045
862 6067
862 6860
862 7145
862 7190
862 7327
862 7361
862 7570
862 8065
862 8194
862 8564
862 9010
863 1363
863 1702
863 2912
863 3641
863 3932
863 4098
863 4820
863 5408
863 5574
863 6225
863 6729
863 7180
863 7667
863 8538
863 9710
864 955
864 1222
864 1246
864 1270
864 1585
864 1972
864 3948
864 4179
864 4502
864 4553
864 4805
864 5101
864 5425
864 5471
864 6100
864 6255
864 7724
864 8174
864 8686
864 9863
865 871
865 1068
865 1470
865 1621
865 1823
865 1967
865 2041
865 2179
865 2408
865 2635
865 3075
865 3198
865 4973
865 5331
865 5332
865 5473
865 5656
865 6130
865 6497
865 6682
865 6988
865 8012
865 8908
865 9277
865 9433
865 9830
866 948
866 1033
866 1501
866 1599
866 1693
866 1720
866 2254
866 3099
866 3209
866 3340
866 3637
866 4247
866 4664
866 5242
866 5577
866 5821
866 5985
866 6374
866 6396
866 7228
866 7325
866 7812
866 8336
866 8653
866 9100
866 9261
866 9936
867 1121
867 1451
867 1541
867 2067
867 2150
867 2248
867 2395
867 2626
867 2976
867 3271
867 3402
867 4052
867 4572
867 5132
867 5582
867 6806
867 7184
867 7322
867 8283
868 1513
868 1596
868 2186
868 2359
868 2451
868 2458
868 2639
868 3996
868 4021
868 4692
868 7141
868 7179
868 8191
868 8468
868 8861
868 8864
868 9241
869 910
869 1177
869 1215
869 1418
869 1760
869 1773
869 1908
869 1931
869 2087
869 2288
869 2832
869 2839
869 2992
869 4487
869 6441
869 6957
869 7914
869 8010
869 8338
869 8697
869 9028
869 9091
869 9205
869 9423
869 9979
870 877
870 1002
870 1291
870 1331
870 1396
870 1592
870 1796
870 2140
870 2360
870 2545
870 2556
870 3119
870 3241
870 3534
870 3718
870 3734
870 3865
870 4032
870 4434
870 5142
870 5497
870 6024
870 7688
870 7944
870 8217
870 9503
871 889
871 901
871 1023
871 1481
871 1824
871 1947
871 3669
871 4154
871 4372
871 4469
871 4667
871 5268
871 5549
871 5562
871 5667
871 5801
871 5906
871 6011
871 6572
871 7468
871 7528
871 8888
871 9641
872 1112
872 1309
872 1439
872 1670
872 1756
872 2571
872 2718
872 3137
872 3172
872 3630
872 3797
872 4309
872 4591
872 4883
872 5979
872 6041
872 6758
872 6838
872 7193
872 8023
872 8158
872 9207
872 9272
872 9298
873 909
873 1257
873 1694
873 2031
873 2313
873 2324
873 2709
873 2922
873 3061
873 3944
873 4035
873 4196
873 4983
873 5077
873 5188
873 5517
873 7590
873 7794
873 7991
873 8793
873 9182
873 9606
873 9872
873 9911
874 937
874 957
874 1088
874 1391
874 1643
874 1836
874 1996
874 2965
874 3653
874 3862
874 5757
874 5944
874 6157
874 7520
874 7769
874 7832
874 8609
874 9210
875 921
875 1338
875 1636
875 1718
875 1924
875 2960
875 3663
875 4052
875 4236
875 4911
875 7064
875 7184
875 9538
875 9607
875 9867
876 947
876 954
876 1112
876 1127
876 1353
876 2583
876 2645
876 2648
876 2787
876 2861
876 3636
876 4438
876 6120
876 6134
876 6232
876 6383
876 6423
876 7044
876 7230
876 7281
876 9269
876 9434
876 9510
876 9784
877 933
877 1282
877 1556
877 2163
877 2325
877 2336
877 2744
877 3510
877 3553
877 3973
877 4459
877 4801
877 5357
877 5803
877 5973
877 6774
877 9283
878 1658
878 2411
878 4165
878 5055
878 6342
878 6495
878 6729
878 7002
878 7224
878 7750
878 7808
878 8623
878 8681
878 8937
878 9177
879 1279
879 1905
879 2119
879 2967
879 4207
879 4386
879 6264
879 7065
879 8697
879 8881
880 1109
880 1681
880 1841
880 2072
880 2309
880 2335
880 2870
880 3054
880 3569
880 6165
880 7774
881 1284
881 1609
881 1772
881 2020
881 2138
881 2182
881 2941
881 3266
881 3796
881 5763
881 6878
881 7112
881 7760
881 8331
881 8425
881 8691
881 8815
882 999
882 1565
882 2241
882 2243
882 2481
882 3489
882 3775
882 4019
882 4159
882 4330
882 4393
882 4575
882 4667
882 4841
882 5307
882 5541
882 6313
882 7818
882 7844
882 8747
882 1966
883 942
883 1061
883 1447
883 1496
883 1541
883 1648
883 1750
883 2089
883 2568
883 2805
883 3159
883 5404
883 5690
883 6831
883 7391
883 7589
883 7890
883 8153
883 8450
883 8754
883 8851
883 8994
883 9084
884 1178
884 1361
884 2636
884 2823
884 2858
884 3084
884 3556
884 3929
884 4040
884 4277
884 4283
884 4744
884 4984
884 5698
884 7942
884 7957
884 8351
884 9365
884 9857
885 915
885 1017
885 1032
885 1039
885 1078
885 1155
885 1309
885 1345
885 1455
885 1733
885 1800
885 1891
885 2474
885 2555
885 2601
885 2614
885 2805
885 2993
885 3040
885 3966
885 4041
885 4086
885 4193
885 4596
885 4997
885 5080
885 6557
885 6677
885 7027
885 7459
885 7510
885 7752
885 7860
885 9021
885 9154
885 9872
886 1209
886 1532
886 1539
886 3152
886 3157
886 3756
886 4551
886 4693
886 5978
886 6325
886 6677
886 8743
886 8759
886 8838
886 9091
886 9741
886 9957
887 1082
887 1437
887 1563
887 1979
887 1982
887 2216
887 2267
887 2409
887 2553
887 2811
887 3305
887 4064
887 4655
887 4902
887 5422
887 5620
887 5679
887 6116
887 6219
887 6422
887 6543
887 7579
887 9058
887 9077
887 9107
887 9234
888 1021
888 1098
888 1129
888 1178
888 1301
888 1357
888 1835
888 1987
888 2219
888 2488
888 2729
888 2761
888 2784
888 3091
888 4160
888 4298
888 4771
888 4812
888 4851
888 5035
888 5112
888 5200
888 5427
888 5684
888 5910
888 6181
888 6678
888 6740
888 6876
888 7017
888 7127
888 7296
888 7306
888 7932
888 8127
888 8263
888 8940
888 8982
888 9219
888 9276
888 9358
888 9874
889 1603
889 1843
889 2049
889 2585
889 2892
889 3448
889 3853
889 4027
889 4892
889 5979
889 7568
889 7595
889 8220
889 8826
889 8999
890 938
890 964
890 1015
890 1097
890 1267
890 1299
890 1308
890 1396
890 1559
890 1698
890 2163
890 2263
890 2394
890 2413
890 2979
890 3030
890 3092
890 3116
890 3731
890 4106
890 4366
890 4447
890 4547
890 5069
890 5193
890 5542
890 5930
890 6010
890 6042
890 6238
890 6427
890 7247
890 7387
890 7489
890 7820
890 7895
890 7930
890 8076
890 8231
890 8430
890 8433
890 8450
890 8598
890 8910
890 8986
890 9043
890 9168
890 9181
890 9244
890 9320
890 9535
890 9573
890 9663
890 9933
891 970
891 1083
891 1103
891 1481
891 1696
891 1855
891 1860
891 1927
891 1962
891 2069
891 2618
891 3027
891 3337
891 3520
891 3581
891 3634
891 3685
891 4726
891 5209
891 5296
891 5450
891 5781
891 5833
891 5896
891 6177
891 6716
891 7722
891 8123
891 8370
891 9619
891 9789
892 970
892 1177
892 1638
892 1932
892 1976
892 2058
892 2757
892 2861
892 3011
892 3228
892 3257
892 3532
892 3566
892 3686
892 4324
892 4812
892 4989
892 5893
892 6457
892 6542
892 7169
892 7453
892 7830
892 7966
892 8939
892 9299
892 9505
893 1046
893 1847
893 1908
893 1941
893 2397
893 3426
893 3856
893 4336
893 4372
893 4387
893 4391
893 5390
893 6046
893 7998
893 9821
894 940
894 1797
894 1912
894 2524
894 3190
894 5049
894 7956
894 8299
894 8465
894 8726
894 8788
894 9009
894 9094
895 1076
895 1344
895 1749
895 2002
895 2457
895 2609
895 2988
895 3031
895 3035
895 4918
895 5071
895 5089
895 5816
895 6279
895 8143
895 8690
895 8746
895 8820
895 9307
895 9829
896 988
896 1521
896 2497
896 2571
896 2742
896 3364
896 4571
896 4635
896 4844
896 4861
896 5395
896 6636
896 8225
896 8484
896 9063
896 9367
897 954
897 958
897 1037
897 1297
897 1443
897 1446
897 1764
897 2176
897 2330
897 2424
897 2442
897 2578
897 2768
897 2905
897 3204
897 3290
897 3793
897 3799
897 3948
897 3985
897 4346
897 4401
897 4611
897 4708
897 4796
897 4840
897 5183
897 5192
897 5380
897 5388
897 5581
897 5592
897 5893
897 7239
897 7342
897 8305
897 8525
897 9550
898 1166
898 1224
898 1605
898 1835
898 2912
898 3357
898 3440
898 3488
898 4643
898 4805
898 7284
898 7493
898 8736
898 8742
898 9683
898 9896
899 1010
899 2176
899 2213
899 2365
899 2606
899 2844
899 3694
899 4071
899 4255
899 4445
899 4795
899 4866
899 4898
899 5262
899 5818
899 7146
899 7641
899 8220
899 9050
899 9153
900 1167
900 1237
900 1360
900 1922
900 1943
900 2023
900 2660
900 2986
900 3036
900 3188
900 3476
900 4239
900 4357
900 4595
900 5080
900 5160
900 5538
900 5874
900 6069
900 6205
900 6395
900 6409
900 6472
900 6800
900 6855
900 6989
900 7111
900 7996
900 8160
900 8423
900 8891
901 937
901 1101
901 1396
901 1678
901 1775
901 1882
901 2586
901 3187
901 3188
901 3365
901 3442
901 3543
901 3864
901 4365
901 4380
901 5274
901 6293
901 6419
901 7349
901 7977
901 8237
901 8264
901 9153
901 9675
902 1297
902 2389
902 2758
902 3732
902 3741
902 3860
902 4158
902 4975
902 5950
902 6656
902 7713
902 7914
902 9094
902 9234
903 1455
903 1485
903 1774
903 2386
903 2448
903 3030
903 3054
903 3459
903 4191
903 4438
903 5183
903 5477
903 6010
903 6043
903 6497
903 6508
903 6893
903 7777
903 8978
903 9603
903 9877
904 1009
904 1221
904 2260
904 3011
904 3618
904 3690
904 3712
904 4125
904 4655
904 6355
904 6747
904 6797
904 6814
904 6949
904 7317
904 9948
905 1008
905 1121
905 1147
905 1321
905 1323
905 1340
905 1448
905 1509
905 1515
905 1548
905 1631
905 1737
905 1885
905 1930
905 2635
905 2762
905 2870
905 2947
905 3253
905 3517
905 3530
905 3714
905 3875
905 4693
905 4848
905 5199
905 6065
905 6200
905 6386
905 6618
905 6724
905 6779
905 7100
905 7865
905 7994
905 8239
905 8364
905 9005
905 9566
905 9605
905 9846
906 1907
906 2173
906 2275
906 3189
906 5727
906 7081
906 8919
907 1087
907 1088
907 1322
907 1938
907 2185
907 2545
907 3260
907 3918
907 4932
907 5153
907 5658
907 5713
907 5824
907 6156
907 7000
907 8271
908 1030
908 1794
908 2215
908 2240
908 2508
908 2619
908 3113
908 3349
908 3353
908 4049
908 5190
908 5258
908 5776
908 6452
908 6637
908 6769
908 6839
908 8398
908 8873
908 9278
908 9818
909 1156
909 2392
909 3017
909 3349
909 4200
909 8103
910 1106
910 1518
910 2054
910 2290
910 2776
910 3070
910 3565
910 3663
910 3809
910 4257
910 6156
910 6661
910 6852
910 7184
910 7349
910 8004
910 8536
910 8965
911 1148
911 1279
911 1956
911 2165
911 4300
911 5093
911 5481
911 6667
911 6835
911 8378
911 8832
911 9158
912 1159
912 1676
912 1988
912 2119
912 2133
912 2156
912 2717
912 3543
912 3762
912 5025
912 5197
912 6303
912 6761
912 6848
912 7704
912 8163
912 8816
912 9309
913 1112
913 1114
913 1181
913 1193
913 1220
913 1229
913 1249
913 1503
913 1647
913 1680
913 1877
913 2365
913 2397
913 2492
913 2565
913 2702
913 2815
913 3220
913 3421
913 4113
913 4276
913 4537
913 5940
913 6214
913 6435
913 6488
913 6512
913 6977
913 7649
913 8466
913 8488
913 8571
913 8873
913 9163
913 9280
914 1105
914 1153
914 1412
914 1471
914 1697
914 2129
914 2134
914 2302
914 2334
914 2656
914 2700
914 2873
914 3113
914 3291
914 3300
914 3522
914 3553
914 4153
914 4360
914 4454
914 5155
914 5925
914 6551
914 6866
914 7185
914 7284
914 7387
914 7461
914 7606
914 8052
914 8342
914 8455
914 8612
914 9077
915 1018
915 1027
915 1053
915 1225
915 1236
915 1286
915 1364
915 1436
915 1438
915 1857
915 2043
915 2224
915 2450
915 2648
915 2663
915 2872
915 2966
915 3043
915 3322
915 3458
915 3538
915 3801
915 3948
915 3989
915 4219
915 4340
915 4417
915 4751
915 4796
915 4798
915 4990
915 6066
915 6236
915 6636
915 6802
915 6935
915 7210
915 7259
915 7394
915 7791
915 7851
915 7871
915 8123
915 8463
915 9040
915 9071
915 9082
915 9633
915 9792
916 1371
916 1381
916 1598
916 2263
916 2435
916 3154
916 3478
916 4527
916 7728
916 8489
916 9110
916 9351
917 963
917 1118
917 1187
917 1198
917 1671
917 1841
917 1953
917 2307
917 2588
917 2621
917 2716
917 2777
917 3302
917 3592
917 3689
917 3741
917 3956
917 3988
917 5164
917 5682
917 5830
917 6310
917 6797
917 6866
917 7536
917 8252
917 8692
917 8975
917 9027
917 9212
918 963
918 994
918 996
918 1099
918 1399
918 1456
918 1833
918 1843
918 2053
918 2171
918 2336
918 2630
918 2978
918 4467
918 4781
918 6782
918 7154
918 7612
918 7734
918 7738
918 8415
918 8457
918 9394
918 9459
919 964
919 1068
919 1502
919 1517
919 1765
919 1955
919 2466
919 2965
919 3506
919 3661
919 4215
919 4480
919 4539
919 4565
919 4582
919 4594
919 4650
919 5082
919 5946
919 6307
919 6545
919 7021
919 7744
919 9267
919 9374
919 9480
919 9694
920 969
920 1233
920 2122
920 2422
920 2503
920 2845
920 3027
920 3108
920 3144
920 3178
920 3977
920 4047
920 4175
920 4649
920 5610
920 5627
920 5837
920 5936
920 6368
920 6828
920 7010
920 7076
920 7147
920 7339
920 7789
920 8103
920 9424
920 9842
921 967
921 1145
921 1264
921 1337
921 1354
921 1377
921 1558
921 1852
921 1913
921 2518
921 2574
921 3221
921 3249
921 3513
921 3654
921 4191
921 4679
921 6502
921 6784
921 7302
921 7637
921 8195
922 928
922 1836
922 1857
922 2618
922 2812
922 2931
922 3378
922 4084
922 4687
922 4756
922 5070
922 5416
922 5443
922 5448
922 5479
922 6150
922 8191
922 8751
923 1423
923 1553
923 1822
923 2210
923 2976
923 3070
923 3095
923 3295
923 4246
923 4295
923 4686
923 5168
923 5717
923 6044
923 6323
923 6487
923 6537
923 6730
923 6946
923 8159
923 8198
923 8873
923 9197
923 9857
924 1013
924 1180
924 1350
924 1419
924 1639
924 1962
924 2294
924 2532
924 2558
924 4423
924 4977
924 5152
924 5248
924 6233
924 6396
924 6471
924 7982
924 8312
924 8355
924 8562
924 8780
924 9051
924 9716
925 945
925 947
925 1233
925 1311
925 1462
925 1483
925 1757
925 1848
925 2076
925 2540
925 2585
925 2749
925 3129
925 3267
925 3742
925 3772
925 4067
925 4377
925 4473
925 4634
925 4710
925 4749
925 4760
925 5084
925 5184
925 6050
925 6413
925 6746
925 7738
925 7967
925 8058
925 8093
925 8200
925 8574
925 8759
925 8974
925 9073
925 9123
925 9993
926 990
926 1987
926 2028
926 2396
926 2968
926 3001
926 3170
926 3745
926 3785
926 3953
926 4133
926 4352
926 4385
926 4649
926 4699
926 5161
926 5874
926 5918
926 6894
926 6913
926 7716
926 8010
926 8284
926 8690
926 9003
926 9073
926 9349
926 9772
926 9848
927 976
927 1474
927 3807
927 4149
927 5341
927 5870
927 6091
927 7074
927 7838
927 8285
927 8325
927 9498
928 1207
928 1217
928 1219
928 1304
928 1353
928 1450
928 1721
928 1896
928 1952
928 2028
928 2241
928 2331
928 2339
928 2417
928 3008
928 3037
928 3039
928 3164
928 3256
928 3328
928 4340
928 4456
928 5446
928 5483
928 5557
928 6630
928 6775
928 7165
928 7806
928 7870
928 7890
928 8177
928 8227
928 8901
928 9099
928 9771
928 9892
929 1555
929 1610
929 1921
929 2861
929 3349
929 4588
929 7460
929 7799
929 7861
929 8172
929 8822
930 1037
930 1079
930 1239
930 1317
930 1630
930 1771
930 2193
930 2513
930 2530
930 2634
930 2793
930 2855
930 2885
930 3108
930 3380
930 3814
930 4029
930 4202
930 4281
930 4473
930 4492
930 4997
930 5620
930 5728
930 6188
930 6456
930 6542
930 6623
930 6658
930 6849
930 7508
930 8012
930 8674
930 8936
930 8998
930 9147
930 9335
930 9403
930 9446
930 9574
931 1100
931 1151
931 1304
931 1569
931 1741
931 2276
931 3307
931 3573
931 4182
931 4315
931 4368
931 4535
931 5783
931 5942
931 6154
931 7352
931 7627
931 7813
931 7835
931 7848
931 7987
931 8069
931 8408
931 8906
931 8995
932 966
932 1329
932 1449
932 1620
932 1750
932 1799
932 2290
932 3330
932 4191
932 5464
932 5638
932 5744
932 5859
932 5915
932 5951
932 6466
932 6755
932 7181
932 8299
933 1194
933 1307
933 1349
933 1460
933 1469
933 1506
933 1508
933 1631
933 1691
933 1745
933 1768
933 2016
933 2309
933 2550
933 2586
933 2805
933 2970
933 3397
933 3711
933 4039
933 4140
933 4424
933 4683
933 5627
933 5813
933 6213
933 6319
933 6586
933 7072
933 7371
933 7582
933 7627
933 7801
933 7935
933 8354
933 8657
933 9077
933 9138
933 9228
933 9554
934 2229
934 2842
934 2926
934 3508
934 4471
934 4863
934 5470
934 6944
934 7608
934 7938
934 8034
934 9148
935 974
935 1498
935 1558
935 1710
935 1729
935 1775
935 1896
935 1936
935 2272
935 2534
935 2702
935 2920
935 2962
935 3135
935 3241
935 3342
935 3362
935 3396
935 3700
935 4013
935 4139
935 5458
935 5493
935 5725
935 5914
935 6746
935 7624
935 7822
935 8711
935 8886
935 8889
935 8899
935 9043
935 9290
935 9719
935 9809
936 942
936 951
936 974
936 1056
936 1313
936 1637
936 1712
936 1944
936 2118
936 2384
936 2533
936 2738
936 2819
936 3005
936 3169
936 3198
936 3379
936 3511
936 3926
936 4471
936 5254
936 5372
936 6028
936 6452
936 7049
936 7291
936 7518
936 7906
936 8540
936 8640
936 8672
936 8754
936 8916
936 9727
937 1150
937 1494
937 2663
937 2798
937 3330
937 3594
937 3768
937 6304
937 8390
937 8925
937 9225
937 9284
937 9461
938 1201
938 1939
938 2072
938 2198
938 2557
938 2635
938 2914
938 2950
938 3097
938 4385
938 4416
938 4448
938 4508
938 5748
938 5988
938 6476
938 6593
938 6649
938 6946
938 7100
938 7234
938 7970
938 9166
938 9217
939 1015
939 1115
939 1257
939 1646
939 1893
939 2283
939 2752
939 2874
939 3375
939 3498
939 3924
939 4426
939 6708
939 7025
939 7317
939 7329
939 7635
939 7848
939 8317
939 9185
939 9736
940 1016
940 1212
940 1357
940 1494
940 1514
940 1584
940 1709
940 2132
940 2160
940 2343
940 2384
940 2634
940 2872
940 3131
940 3322
940 3341
940 3443
940 3634
940 3810
940 4453
940 4758
940 5322
940 6397
940 6408
940 6533
940 6644
940 7038
940 8144
940 8168
940 8743
940 8979
940 9310
940 9353
940 9371
940 9846
941 1026
941 1124
941 1204
941 1502
941 1977
941 2082
941 2463
941 2981
941 3178
941 3331
941 3478
941 3591
941 3828
941 3926
941 4618
941 5604
941 5793
941 5970
941 6834
941 7798
941 8018
941 8450
941 8921
941 9155
941 9228
941 9307
941 9649
942 1024
942 1040
942 1147
942 1184
942 1395
942 1438
942 1464
942 1568
942 1595
942 1605
942 1720
942 2017
942 2018
942 2190
942 2271
942 2862
942 2933
942 3233
942 3274
942 3488
942 3542
942 3767
942 3994
942 4073
942 4235
942 4315
942 5231
942 5424
942 5633
942 5798
942 5992
942 7151
942 7834
942 8721
942 8760
942 8857
942 9447
943 975
943 1874
943 2103
943 2303
943 2678
943 2755
943 3101
943 3864
943 4061
943 4901
943 5457
943 6124
943 6341
943 6503
943 6808
943 7642
943 7795
943 9261
943 9740
944 1568
944 2201
944 2529
944 2948
944 5606
944 6493
944 7364
944 7668
944 7704
944 8289
944 8552
944 8881
944 9224
944 9337
945 1374
945 1414
945 1615
945 1783
945 1812
945 2331
945 2512
945 2611
945 2698
945 3053
945 3784
945 3890
945 3959
945 4515
945 4781
945 5557
945 6363
945 6583
945 6855
945 7078
945 7205
945 7254
945 7867
945 9021
945 9406
945 9561
945 9997
946 948
946 978
946 1075
946 1152
946 1238
946 1641
946 2285
946 2321
946 2335
946 2449
946 2948
946 2961
946 3809
946 4573
946 4756
946 5242
946 5333
946 5926
946 6270
946 6528
946 7270
946 7319
946 7571
946 8345
946 8766
946 9760
947 1433
947 3615
947 4045
947 4479
947 5033
947 5901
947 6406
947 6536
947 7383
947 8263
947 8285
947 8459
947 9106
948 951
948 1081
948 1096
948 1720
948 1801
948 1887
948 2154
948 2175
948 2664
948 3344
948 3654
948 3720
948 3840
948 4637
948 4650
948 6912
948 8367
948 8620
948 9325
949 1730
949 1998
949 2116
949 2368
949 2644
949 2685
949 3898
949 5054
949 6371
949 6835
949 7521
949 7788
949 8036
949 8049
949 8113
949 8411
949 9946
950 1630
950 1691
950 2402
950 2804
950 3689
950 4522
950 4816
950 4818
950 5076
950 5268
950 5365
950 5880
950 6502
950 7424
950 7465
950 7551
950 7629
950 7947
950 8858
950 9600
950 9859
951 1529
951 1579
951 1638
951 1644
951 2273
951 2354
951 2514
951 2785
951 3376
951 4064
951 4134
951 4182
951 4386
951 4571
951 4766
951 4959
951 4977
951 5668
951 6142
951 6588
951 6862
951 7509
951 7974
951 8752
951 8849
951 8964
951 9073
951 9513
951 9986
952 1118
952 1345
952 1932
952 2133
952 2677
952 2799
952 2987
952 3239
952 3717
952 4521
952 4841
952 5191
952 5669
952 6410
952 6470
952 7383
952 7622
952 8794
952 9269
953 1024
953 1078
953 1331
953 1398
953 1478
953 1509
953 1755
953 1984
953 1985
953 2078
953 2258
953 2618
953 2929
953 3284
953 3305
953 3747
953 3877
953 4216
953 5039
953 5156
953 5220
953 5542
953 5707
953 5870
953 6321
953 6972
953 7216
953 7321
953 8669
953 8942
953 9003
953 9809
953 9887
954 1203
954 1859
954 2187
954 2204
954 3001
954 3140
954 4188
954 4677
954 4852
954 4874
954 4881
954 5599
954 6633
954 8056
954 8468
954 8811
954 8818
954 8843
954 9806
955 1089
955 1277
955 1352
955 1516
955 1741
955 2512
955 2695
955 2843
955 3104
955 3122
955 3380
955 3603
955 3611
955 3612
955 3831
955 4106
955 4698
955 5326
955 6380
955 6884
955 7180
955 7640
955 7975
955 8357
955 9086
956 1175
956 1179
956 1234
956 1270
956 1448
956 1477
956 1586
956 1726
956 1835
956 1955
956 1973
956 1974
956 2183
956 2282
956 2354
956 2386
956 2493
956 2638
956 2729
956 2883
956 2948
956 2993
956 3146
956 3297
956 3531
956 4838
956 4916
956 5128
956 5266
956 5320
956 5661
956 6722
956 6770
956 7694
956 8733
956 9438
957 991
957 1059
957 1218
957 1221
957 1599
957 2190
957 2439
957 2769
957 2933
957 2995
957 3141
957 3236
957 3290
957 3415
957 3538
957 3954
957 4250
957 4300
957 5077
957 5106
957 5879
957 5916
957 8671
957 9110
957 9942
958 982
958 1405
958 2259
958 2884
958 3128
958 3391
958 3515
958 3702
958 4163
958 4304
958 4488
958 5529
958 7179
958 9323
958 9471
959 1378
959 1407
959 1580
959 1972
959 2097
959 2152
959 2441
959 2497
959 2645
959 2776
959 2838
959 5300
959 5521
959 5711
959 8299
960 1088
960 1312
960 1454
960 1566
960 1706
960 1903
960 2563
960 2721
960 2853
960 3007
960 4386
960 4943
960 5259
960 7021
960 9347
960 9615
960 9970
961 1178
961 1716
961 2007
961 2538
961 2805
961 2897
961 3390
961 5390
961 5854
961 6340
961 6447
961 6597
961 7665
961 8094
961 8144
961 8961
961 9713
961 9992
962 1160
962 1183
962 1388
962 2239
962 2341
962 2698
962 3849
962 3929
962 4745
962 4818
962 5348
962 5463
962 5601
962 5764
962 7739
962 7966
962 8357
962 8447
962 8874
962 9076
962 9590
963 1339
963 1678
963 2006
963 2301
963 3265
963 3435
963 3654
963 3790
963 4214
963 4223
963 4269
963 5510
963 5802
963 7449
963 9232
963 9717
963 9776
964 1347
964 1388
964 1707
964 1889
964 1891
964 1989
964 2435
964 2721
964 3656
964 4497
964 5267
964 5402
964 5553
964 5969
964 6005
964 6284
964 6494
964 6860
964 7353
964 7710
964 9502
965 1158
965 1269
965 1589
965 1985
965 2623
965 2782
965 3095
965 3594
965 4628
965 5128
965 5322
965 5668
965 6396
965 6660
965 7192
965 7325
965 7670
965 8622
965 9106
966 1000
966 1003
966 1005
966 1103
966 1424
966 2362
966 2840
966 3085
966 3196
966 3308
966 3512
966 3528
966 4148
966 4151
966 6160
966 6421
966 6502
966 8020
966 8507
966 8885
966 9046
967 988
967 1306
967 1316
967 1332
967 1467
967 1684
967 1745
967 1820
967 1910
967 1998
967 2017
967 2801
967 3759
967 5701
967 5730
967 6013
967 6281
967 6989
967 8287
967 8458
967 9008
968 1042
968 1305
968 1426
968 1502
968 1885
968 2145
968 2292
968 2532
968 3046
968 3463
968 3514
968 3625
968 3819
968 4200
968 4838
968 4851
968 4927
968 4993
968 5497
968 5898
968 7029
968 7300
968 7824
968 8847
968 9755
969 995
969 1067
969 1603
969 1711
969 2162
969 2494
969 2695
969 3329
969 3366
969 4000
969 4712
969 4916
969 5077
969 6677
969 6793
969 8657
970 989
970 1197
970 1420
970 1522
970 1857
970 2603
970 2687
970 3314
970 3372
970 3701
970 3808
970 3828
970 3995
970 4057
970 4126
970 4256
970 6418
970 6679
970 7869
970 7909
970 8161
970 8515
970 9349
970 9514
971 1012
971 1015
971 1253
971 1591
971 1921
971 2204
971 2221
971 2657
971 3085
971 3147
971 3298
971 3573
971 3576
971 4227
971 4330
971 5091
971 5694
971 6193
971 6348
971 8545
971 8676
971 9390
972 1022
972 1042
972 1125
972 1251
972 1986
972 3113
972 3597
972 4058
972 4289
972 4449
972 4821
972 5236
972 7735
972 7820
972 7946
972 8013
972 8428
972 8491
972 8686
972 8786
973 974
973 1056
973 1366
973 1406
973 1443
973 1938
973 2061
973 2191
973 3222
973 3395
973 3937
973 3962
973 4592
973 6117
973 6492
973 8406
973 9267
973 9707
974 1112
974 1144
974 1324
974 1332
974 1528
974 1607
974 2014
974 2015
974 2441
974 2485
974 2605
974 2911
974 3733
974 4236
974 4420
974 4669
974 5257
974 5366
974 5455
974 5529
974 5914
974 6467
974 7200
974 7662
974 8020
974 8539
974 8795
974 9491
975 1404
975 1430
975 1605
975 2191
975 2233
975 2641
975 3074
975 3204
975 3303
975 3364
975 3745
975 4307
975 4488
975 5435
975 6586
975 6856
975 6978
975 8334
975 8398
975 8461
975 9125
975 9238
976 1082
976 1534
976 1837
976 1957
976 2254
976 2566
976 2889
976 4053
976 4168
976 4294
976 4773
976 4934
976 4977
976 5612
976 6065
976 6154
976 6645
976 7023
976 9457
977 1083
977 1274
977 2929
977 2947
977 3425
977 4836
977 5415
977 5794
977 6283
977 6421
977 6713
977 7431
977 7536
977 7784
977 8644
977 8658
977 9607
977 9850
978 1137
978 1261
978 1387
978 1440
978 1495
978 1669
978 1775
978 2507
978 2706
978 3060
978 3240
978 3266
978 3285
978 3315
978 3853
978 4958
978 5574
978 6170
978 6378
978 6811
978 7481
978 8160
978 8390
978 8686
978 8852
978 9745
979 1105
979 2242
979 2425
979 2854
979 4053
979 4797
979 5182
979 5236
979 6378
979 6808
979 7010
979 8619
979 9352
980 1048
980 1468
980 1689
980 2461
980 2931
980 3219
980 4395
980 4629
980 5734
980 7899
980 9566
981 1302
981 1405
981 1512
981 1672
981 2410
981 2425
981 2711
981 2786
981 2998
981 3179
981 3600
981 3649
981 3702
981 5243
981 5568
981 6122
981 6515
981 6906
981 8753
981 9900
982 1509
982 1692
982 2240
982 2293
982 2818
982 2890
982 2977
982 3588
982 3686
982 3756
982 3964
982 5707
982 6093
982 6496
982 6927
982 7092
982 7636
982 7744
982 8157
982 8824
982 8838
982 8881
982 9011
982 9144
982 9938
983 1315
983 1426
983 1465
983 1585
983 1926
983 2889
983 2913
983 3231
983 3254
983 3799
983 3839
983 4060
983 4506
983 4661
983 4827
983 5071
983 5125
983 5164
983 6478
983 6506
983 6659
983 6803
983 7656
983 7722
983 7937
983 8492
983 9858
984 1225
984 1723
984 1795
984 1926
984 2539
984 2884
984 2988
984 3569
984 3916
984 4251
984 4566
984 4862
984 5199
984 5321
984 5351
984 5359
984 5491
984 5802
984 6948
984 7697
984 8150
984 8730
984 8783
984 8837
984 8908
984 9854
984 9932
985 2386
985 2674
985 3111
985 3165
985 3177
985 3405
985 3750
985 4184
985 5651
985 7120
985 7830
985 9550
986 1093
986 1286
986 2051
986 2938
986 3251
986 4874
986 5631
986 5809
986 5943
986 6035
986 6625
986 7898
986 8268
986 9629
987 1513
987 1866
987 2008
987 2066
987 2408
987 2852
987 2960
987 3150
987 3579
987 3702
987 3746
987 3973
987 4829
987 7952
987 8420
987 8561
987 8776
988 2077
988 2185
988 2984
988 3120
988 3254
988 3761
988 4401
988 6054
988 8571
988 9239
989 1045
989 1426
989 4291
989 4803
989 7062
989 7461
990 1453
990 2543
990 2545
990 2557
990 2720
990 2748
990 3683
990 3814
990 4000
990 4893
990 5292
990 5485
990 5487
990 5517
990 5529
990 5736
990 6060
990 6340
990 9755
990 9768
991 1099
991 1149
991 1524
991 1536
991 1550
991 1562
991 1748
991 1958
991 2156
991 2205
991 2261
991 2402
991 2568
991 2587
991 2798
991 3824
991 3837
991 3881
991 3941
991 4012
991 4215
991 4242
991 4667
991 5370
991 5392
991 5498
991 5587
991 5599
991 5607
991 6063
991 6171
991 6342
991 6386
991 6980
991 6981
991 7264
991 7377
991 7541
991 8258
991 8260
992 1041
992 1232
992 1731
992 2168
992 2277
992 2651
992 2783
992 2922
992 3043
992 3095
992 3101
992 3321
992 3362
992 3384
992 3541
992 3793
992 5160
992 5250
992 5522
992 5616
992 5732
992 6143
992 7071
992 7092
992 7299
992 7686
992 7913
992 7952
992 8841
992 9538
992 9688
992 9785
992 9962
993 1383
993 1675
993 1760
993 1811
993 1905
993 1921
993 2133
993 2397
993 2524
993 2628
993 2714
993 3004
993 3159
993 3436
993 3531
993 3685
993 5108
993 5151
993 7040
993 7265
993 7463
993 7583
993 7617
993 7965
993 8826
993 9369
993 9413
993 9893
993 9971
994 1212
994 1222
994 1429
994 1511
994 1882
994 2287
994 2294
994 2318
994 2454
994 2887
994 3181
994 3480
994 4130
994 4268
994 4489
994 4751
994 6681
994 6789
994 7243
994 8531
994 8700
994 9383
994 4678
995 1082
995 1176
995 1257
995 2509
995 2616
995 3547
995 4113
995 4254
995 4303
995 5184
995 5683
995 5920
995 5986
995 6047
995 6147
995 6377
995 6706
995 7897
995 8941
995 9691
996 1059
996 1105
996 1359
996 1664
996 2184
996 2348
996 2881
996 2937
996 3135
996 3149
996 3474
996 3597
996 3702
996 4009
996 4062
996 4891
996 5073
996 5458
996 5611
996 5741
996 6119
996 6150
996 6314
996 7167
996 7391
996 7483
996 8029
996 8840
996 9689
996 9991
997 1016
997 1068
997 1785
997 2114
997 2696
997 3260
997 3783
997 3821
997 3909
997 3915
997 4174
997 4402
997 4742
997 4940
997 5187
997 5984
997 6712
997 6856
997 7807
997 9025
997 9741
998 1018
998 1109
998 1531
998 1635
998 2404
998 2712
998 4287
998 4411
998 4933
998 4962
998 5350
998 5613
998 5816
998 6743
998 7202
998 8255
999 1010
999 1186
999 1574
999 1796
999 1868
999 1909
999 2105
999 2172
999 2334
999 2416
999 2441
999 2483
999 2833
999 3270
999 3274
999 5063
999 5157
999 5293
999 5314
999 5633
999 5950
999 6100
999 6239
999 6363
999 6646
999 7069
999 7184
999 7360
999 8229
999 8635
999 8639
999 9276
999 9744
999 9832
1000 1023
1000 1144
1000 1471
1000 1548
1000 1819
1000 2319
1000 3197
1000 3290
1000 3444
1000 3678
1000 3993
1000 4862
1000 5112
1000 5435
1000 5508
1000 5702
1000 5949
1000 7266
1000 7699
1000 7717
1000 9960
1001 1059
1001 1395
1001 1476
1001 1694
1001 1748
1001 2008
1001 2237
1001 2832
1001 3842
1001 4013
1001 4958
1001 5058
1001 6213
1001 6349
1001 6916
1001 8387
1001 8733
1002 1050
1002 1054
1002 1331
1002 1649
1002 1713
1002 1877
1002 2507
1002 3015
1002 3546
1002 4633
1002 5060
1002 5435
1002 6344
1002 6409
1002 9013
1002 9400
1003 1142
1003 1244
1003 1336
1003 1740
1003 1826
1003 1882
1003 1941
1003 2082
1003 2095
1003 2317
1003 2659
1003 3231
1003 3324
1003 3558
1003 3605
1003 3837
1003 3913
1003 4047
1003 4089
1003 4530
1003 4645
1003 4761
1003 5034
1003 7294
1003 7446
1003 7730
1003 7739
1003 8278
1003 8469
1003 8917
1003 9670
1003 9782
1004 1074
1004 1152
1004 1252
1004 1391
1004 1559
1004 1742
1004 1765
1004 2261
1004 2512
1004 2558
1004 3845
1004 4687
1004 4990
1004 5035
1004 5957
1004 6006
1004 6444
1004 6552
1004 6621
1004 7098
1004 7398
1004 7846
1004 8140
1004 8616
1005 1016
1005 1162
1005 1258
1005 3511
1005 3751
1005 3767
1005 3850
1005 4527
1005 4785
1005 4906
1005 5552
1005 6975
1005 7153
1005 9189
1005 9454
1006 2153
1006 2986
1006 3004
1006 4046
1006 5491
1006 5512
1006 9572
1006 9886
1007 1387
1007 2078
1007 2489
1007 3043
1007 3113
1007 3292
1007 3390
1007 3675
1007 3728
1007 4270
1007 4762
1007 4767
1007 5012
1007 5468
1007 5848
1007 6127
1007 6330
1007 7654
1007 8412
1008 1567
1008 1615
1008 2086
1008 2441
1008 2814
1008 3883
1008 6297
1008 6612
1008 7278
1008 8210
1009 1378
1009 1616
1009 2499
1009 2578
1009 2606
1009 2717
1009 2780
1009 3661
1009 3690
1009 3816
1009 4161
1009 4366
1009 4564
1009 5129
1009 6629
1009 6872
1009 7965
1009 8438
1009 9716
1009 9731
1010 1070
1010 1434
1010 1898
1010 2395
1010 2592
1010 2650
1010 2786
1010 3509
1010 3996
1010 5020
1010 5088
1010 6399
1010 6633
1010 7671
1010 8376
1010 9124
1010 9784
1011 1157
1011 1551
1011 2463
1011 2530
1011 2930
1011 3169
1011 4249
1011 4506
1011 4774
1011 4897
1011 5364
1011 6260
1011 6604
1011 7690
1011 7980
1011 8947
1011 9555
1012 1335
1012 1658
1012 2214
1012 3009
1012 3249
1012 4168
1012 4388
1012 5855
1012 6403
1012 7829
1012 8862
1013 1074
1013 1268
1013 1321
1013 1705
1013 1836
1013 1946
1013 2332
1013 2372
1013 2602
1013 2656
1013 2673
1013 3277
1013 3434
1013 3499
1013 3544
1013 3549
1013 3827
1013 3862
1013 3944
1013 4210
1013 4820
1013 5146
1013 5329
1013 5493
1013 5548
1013 5627
1013 6834
1013 7202
1013 7237
1013 7497
1013 7804
1013 7955
1013 8022
1013 8193
1013 9190
1013 9986
1014 1424
1014 1434
1014 1746
1014 1809
1014 2067
1014 4526
1014 4563
1014 5147
1014 5241
1014 6656
1014 6670
1014 8866
1015 1245
1015 1461
1015 1488
1015 1734
1015 2120
1015 2490
1015 2711
1015 3729
1015 3918
1015 4079
1015 4202
1015 4455
1015 4500
1015 5039
1015 5297
1015 6569
1015 7145
1015 7284
1015 7937
1015 8402
1015 8685
1015 8758
1015 9985
1015 9999
1016 1534
1016 1607
1016 2512
1016 2522
1016 2660
1016 2802
1016 3115
1016 4444
1016 4935
1016 5451
1016 5744
1016 8489
1016 8689
1017 1312
1017 1460
1017 1739
1017 1983
1017 2069
1017 2375
1017 2660
1017 2959
1017 3648
1017 3660
1017 3796
1017 4122
1017 4167
1017 4499
1017 5904
1017 5988
1017 6156
1017 6630
1017 7246
1017 7332
1017 7900
1018 1171
1018 1355
1018 1375
1018 1455
1018 1546
1018 3261
1018 3284
1018 3598
1018 3941
1018 4094
1018 4781
1018 5667
1018 5836
1018 5863
1018 6355
1018 6583
1018 6943
1018 7421
1018 8565
1018 8576
1018 9108
1018 9278
1018 9616
1019 1043
1019 1120
1019 1227
1019 1233
1019 1768
1019 1833
1019 2213
1019 2856
1019 3048
1019 3912
1019 4166
1019 4407
1019 4762
1019 5658
1019 6246
1019 6782
1019 8643
1019 8722
1020 1479
1020 1848
1020 1922
1020 2188
1020 2417
1020 2522
1020 2836
1020 3371
1020 3529
1020 3542
1020 4004
1020 4367
1020 4372
1020 4697
1020 5602
1020 5674
1020 6334
1020 6522
1020 6961
1020 7652
1020 7746
1020 7987
1021 1135
1021 1332
1021 1624
1021 1804
1021 2381
1021 2628
1021 3040
1021 3335
1021 4112
1021 4146
1021 4774
1021 4787
1021 5175
1021 5858
1021 5873
1021 6596
1021 6602
1021 7596
1021 7601
1021 9378
1021 9935
1021 9968
1022 1237
1022 2632
1022 2652
1022 3280
1022 3857
1022 3969
1022 4031
1022 4143
1022 4359
1022 4383
1022 4530
1022 4559
1022 5420
1022 5603
1022 5671
1022 5899
1022 6015
1022 6258
1022 6984
1022 7080
1022 7204
1022 8641
1022 8993
1023 1346
1023 1567
1023 1894
1023 2225
1023 2458
1023 3202
1023 3521
1023 4085
1023 4153
1023 4614
1023 4638
1023 5060
1023 5111
1023 5223
1023 5547
1023 5767
1023 5911
1023 5931
1023 6031
1023 6839
1023 6990
1023 8407
1023 8423
1023 8753
1023 9360
1023 9379
1024 1717
1024 2897
1024 3853
1024 4168
1024 4361
1024 5502
1024 6030
1024 6538
1024 6889
1024 7772
1024 8274
1024 8775
1025 1326
1025 1567
1025 1654
1025 2053
1025 2411
1025 2452
1025 2489
1025 2718
1025 4211
1025 4503
1025 4748
1025 4749
1025 6598
1025 7488
1025 7522
1025 9539
1025 9588
1025 9662
1026 1207
1026 1276
1026 1469
1026 1872
1026 1943
1026 3997
1026 4957
1026 5399
1026 6267
1026 9038
1027 1689
1027 1768
1027 1916
1027 2139
1027 2192
1027 2837
1027 3291
1027 3445
1027 3701
1027 4383
1027 4684
1027 4926
1027 5676
1027 6439
1027 7121
1027 7280
1027 8188
1027 9834
1027 9960
1028 1363
1028 1386
1028 2257
1028 2312
1028 2670
1028 3183
1028 5515
1028 6168
1028 7818
1028 8439
1029 1105
1029 1676
1029 1702
1029 1998
1029 2324
1029 3078
1029 3296
1029 3397
1029 3492
1029 3824
1029 4269
1029 4949
1029 5009
1029 5082
1029 6600
1029 6626
1029 7073
1029 7186
1029 7209
1029 7628
1029 7690
1029 7805
1029 8735
1029 9131
1029 9470
1030 1252
1030 1925
1030 1971
1030 2640
1030 2915
1030 3193
1030 3340
1030 3634
1030 4837
1030 6224
1030 6548
1030 6838
1031 1318
1031 1644
1031 2915
1031 3214
1031 3289
1031 3802
1031 3975
1031 5898
1031 6051
1031 6156
1031 6774
1031 7115
1031 7179
1032 1557
1032 1920
1032 2011
1032 2330
1032 2649
1032 3038
1032 3074
1032 3306
1032 3533
1032 3567
1032 3678
1032 3795
1032 4291
1032 4385
1032 4729
1032 5134
1032 5210
1032 5439
1032 5472
1032 5831
1032 6073
1032 7067
1032 8089
1032 8232
1032 8380
1032 9024
1032 9968
1033 1173
1033 1465
1033 1557
1033 2164
1033 2179
1033 2290
1033 2909
1033 3050
1033 3853
1033 4041
1033 4647
1033 4654
1033 4970
1033 5141
1033 6010
1033 6024
1033 6102
1033 6618
1033 7015
1033 7945
1033 8346
1033 8744
1033 9153
1034 1342
1034 1569
1034 2411
1034 2692
1034 3633
1034 3843
1034 3950
1034 4329
1034 5058
1034 6356
1034 6877
1034 6956
1034 7973
1034 8761
1035 1157
1035 1198
1035 1420
1035 1458
1035 1610
1035 1835
1035 2089
1035 2285
1035 2551
1035 2596
1035 2758
1035 3534
1035 4231
1035 4957
1035 5284
1035 5518
1035 5751
1035 5804
1035 6515
1035 6855
1035 7011
1035 7498
1035 7899
1035 8707
1035 9222
1035 9715
1036 1037
1036 1495
1036 1739
1036 2214
1036 2978
1036 3619
1036 3645
1036 4961
1036 6148
1036 6915
1036 8317
1036 9300
1036 9672
1037 1165
1037 1236
1037 1240
1037 1420
1037 1713
1037 2022
1037 2082
1037 2167
1037 2393
1037 2460
1037 2997
1037 3963
1037 4003
1037 4046
1037 4153
1037 4327
1037 4341
1037 5831
1037 5922
1037 5987
1037 6203
1037 6528
1037 6685
1037 7703
1037 8316
1037 8971
1037 9705
1037 9854
1038 1201
1038 1885
1038 2253
1038 2258
1038 2393
1038 3057
1038 3503
1038 3763
1038 4079
1038 4108
1038 4685
1038 5065
1038 5342
1038 5418
1038 5630
1038 5801
1038 6062
1038 6177
1038 6784
1038 7248
1038 8474
1038 8485
1038 8510
1038 8893
1039 1852
1039 2033
1039 2722
1039 3527
1039 3702
1039 4378
1039 4666
1039 5221
1039 5527
1039 7089
1039 7381
1039 8569
1039 9852
1039 9996
1040 1339
1040 1579
1040 1867
1040 2215
1040 3478
1040 3662
1040 3740
1040 4838
1040 5107
1040 6940
1040 7269
1040 8843
1040 9270
1040 9388
1040 9772
1040 9950
1041 1047
1041 1148
1041 1160
1041 2225
1041 2350
1041 2412
1041 2831
1041 2952
1041 4052
1041 4213
1041 4298
1041 5717
1041 6090
1041 6187
1041 6703
1041 6856
1041 7044
1041 8334
1041 8619
1041 9533
1041 9828
1042 1380
1042 1390
1042 1562
1042 1904
1042 1918
1042 2182
1042 2269
1042 2354
1042 2406
1042 2422
1042 2555
1042 2723
1042 2788
1042 2906
1042 3251
1042 3324
1042 3664
1042 3817
1042 3895
1042 3998
1042 4481
1042 4843
1042 5244
1042 5376
1042 5403
1042 5558
1042 5617
1042 5793
1042 6286
1042 6396
1042 6832
1042 7216
1042 7372
1042 8131
1042 8362
1042 9784
1042 9976
1043 1058
1043 1085
1043 1403
1043 1424
1043 1501
1043 1740
1043 2510
1043 2544
1043 2550
1043 2766
1043 3896
1043 4012
1043 4525
1043 5868
1043 6008
1043 6362
1043 7267
1043 8151
1043 8723
1044 1235
1044 1238
1044 1440
1044 1734
1044 1962
1044 2450
1044 2607
1044 2899
1044 3514
1044 3652
1044 4003
1044 4262
1044 4782
1044 6577
1044 9719
1045 1484
1045 2495
1045 2958
1045 3883
1045 4574
1045 5285
1045 7052
1045 8225
1045 9187
1045 9497
1046 1156
1046 1253
1046 1398
1046 1540
1046 2225
1046 2697
1046 3054
1046 3098
1046 4093
1046 4107
1046 5723
1046 6235
1046 7593
1046 8011
1046 8299
1046 8855
1046 9320
1047 1139
1047 1228
1047 1763
1047 1846
1047 2142
1047 2211
1047 2337
1047 2430
1047 4343
1047 4630
1047 4681
1047 4776
1047 4999
1047 5060
1047 5266
1047 5818
1047 6405
1047 6550
1047 6571
1047 6684
1047 6776
1047 7145
1047 7384
1047 7561
1047 8578
1047 8790
1047 8819
1047 8846
1047 9078
1048 1226
1048 1531
1048 1587
1048 1604
1048 1920
1048 2572
1048 3214
1048 3382
1048 3416
1048 3499
1048 4754
1048 5511
1048 5547
1048 6659
1048 7705
1048 8561
1048 8865
1048 8881
1048 8922
1048 9637
1049 1117
1049 1137
1049 1238
1049 1420
1049 1684
1049 2072
1049 2078
1049 2081
1049 2751
1049 3533
1049 3712
1049 3802
1049 4174
1049 4190
1049 4438
1049 4585
1049 5951
1049 7291
1049 7647
1049 8330
1049 8469
1049 9235
1049 9410
1049 9584
1049 9696
1049 9773
1049 9927
1050 1493
1050 1726
1050 3018
1050 3361
1050 3822
1050 4068
1050 4513
1050 4515
1050 4811
1050 5747
1050 5837
1050 6465
1051 1214
1051 1538
1051 1618
1051 1724
1051 2173
1051 2262
1051 2654
1051 2898
1051 4086
1051 4144
1051 4295
1051 5341
1051 6410
1051 6435
1051 6496
1051 6566
1051 7052
1051 7978
1051 8370
1051 8403
1051 8535
1052 1066
1052 1466
1052 1567
1052 2057
1052 2867
1052 3023
1052 3076
1052 4238
1052 4909
1052 5335
1052 6573
1052 6984
1052 7142
1052 7448
1052 7697
1052 7782
1052 8011
1052 8528
1052 9330
1052 9455
1053 1270
1053 1306
1053 1746
1053 2416
1053 2619
1053 2764
1053 3477
1053 4006
1053 4245
1053 4804
1053 5049
1053 5285
1053 5534
1053 5629
1053 5681
1053 5814
1053 5815
1053 5954
1053 6793
1053 7001
1053 7224
1053 7571
1053 7600
1053 8016
1053 8441
1053 8476
1053 8548
1053 8621
1053 9216
1053 9578
1054 1377
1054 1424
1054 1542
1054 1832
1054 2446
1054 2781
1054 3370
1054 4682
1054 5499
1054 7067
1054 7565
1054 7720
1054 9163
1054 9328
1055 1193
1055 1220
1055 1240
1055 1760
1055 2039
1055 3147
1055 4139
1055 6041
1055 6519
1055 7661
1055 7704
1055 8006
1055 9116
1055 9126
1055 9549
1056 1221
1056 1297
1056 1785
1056 2124
1056 2271
1056 3144
1056 3299
1056 3486
1056 4501
1056 4887
1056 5046
1056 5113
1056 5287
1056 6128
1056 6137
1056 6383
1056 6529
1056 7767
1056 8079
1056 8430
1056 8588
1056 9262
1057 1154
1057 1627
1057 1879
1057 2347
1057 3142
1057 4401
1057 5672
1057 5733
1057 6399
1057 7018
1057 7324
1057 9256
1058 1110
1058 1212
1058 1548
1058 1774
1058 2002
1058 2056
1058 2353
1058 2702
1058 2989
1058 3042
1058 3134
1058 3370
1058 3510
1058 4082
1058 4092
1058 4284
1058 4552
1058 4768
1058 4939
1058 5569
1058 5746
1058 6301
1058 6731
1058 8224
1058 9307
1058 9387
1059 1710
1059 1715
1059 1754
1059 2005
1059 2793
1059 3059
1059 3581
1059 3763
1059 3972
1059 4081
1059 4540
1059 5152
1059 5364
1059 5646
1059 6191
1059 6880
1059 7505
1059 7720
1059 8472
1059 9709
1060 1095
1060 1573
1060 1744
1060 1802
1060 2105
1060 2143
1060 2743
1060 2778
1060 2879
1060 3678
1060 3757
1060 3758
1060 4488
1060 4749
1060 4773
1060 4986
1060 6353
1060 6754
1060 7512
1060 8473
1060 8796
1061 1190
1061 1384
1061 1501
1061 1582
1061 2372
1061 2518
1061 2702
1061 2912
1061 2921
1061 3898
1061 6058
1061 6135
1061 6223
1061 6435
1061 6477
1061 7957
1061 9469
1061 9727
1062 1155
1062 1186
1062 1209
1062 1437
1062 1606
1062 2171
1062 2518
1062 2651
1062 2772
1062 2812
1062 4369
1062 6025
1062 7918
1062 8360
1062 8636
1062 9545
1062 9599
1063 1712
1063 1772
1063 1977
1063 2012
1063 2041
1063 2247
1063 2634
1063 4642
1063 4873
1063 4877
1063 5622
1063 6084
1063 6204
1063 6359
1063 7195
1063 7321
1063 7422
1063 7672
1063 9102
1064 1140
1064 1207
1064 1261
1064 1591
1064 1673
1064 1685
1064 1770
1064 1968
1064 2692
1064 3033
1064 3619
1064 4632
1064 4694
1064 5261
1064 5324
1064 5402
1064 5825
1064 7153
1064 7219
1064 7255
1064 7438
1064 7807
1064 7834
1064 7918
1064 9705
1064 9783
1065 1164
1065 1233
1065 1802
1065 1917
1065 2971
1065 3128
1065 3266
1065 4724
1065 5134
1065 5855
1065 6013
1065 6308
1065 6649
1065 9100
1066 1163
1066 1185
1066 1230
1066 1254
1066 1326
1066 1330
1066 1607
1066 1666
1066 1970
1066 2491
1066 2868
1066 3016
1066 3372
1066 3426
1066 4179
1066 4319
1066 5586
1066 5787
1066 7783
1066 7961
1066 8506
1066 8828
1066 9298
1066 9516
1067 1107
1067 1524
1067 1688
1067 1778
1067 1815
1067 2119
1067 2317
1067 2838
1067 2916
1067 4151
1067 4272
1067 4387
1067 4582
1067 4651
1067 4690
1067 4730
1067 5407
1067 5524
1067 5667
1067 6166
1067 6441
1067 6969
1067 7257
1067 7355
1067 7775
1067 7822
1067 8541
1067 8940
1068 1258
1068 1283
1068 2333
1068 3213
1068 3248
1068 3258
1068 3638
1068 4814
1068 5002
1068 5600
1068 9406
1069 3121
1069 3396
1069 3888
1069 4121
1069 5924
1069 7355
1069 8394
1069 8958
1069 9624
1070 1162
1070 1345
1070 1485
1070 2019
1070 2486
1070 3587
1070 3616
1070 5013
1070 5699
1070 6177
1070 7155
1070 7350
1070 8218
1071 1780
1071 2081
1071 2367
1071 3167
1071 4321
1071 4665
1071 5395
1072 1156
1072 1281
1072 1584
1072 1761
1072 2066
1072 2200
1072 2228
1072 2360
1072 2712
1072 3008
1072 3035
1072 3081
1072 3248
1072 3518
1072 3606
1072 4565
1072 4661
1072 4748
1072 5206
1072 5216
1072 5809
1072 6004
1072 7256
1072 7501
1072 7535
1072 7754
1072 8122
1072 8234
1072 8487
1072 8888
1073 1389
1073 1405
1073 3010
1073 3131
1073 3951
1073 4287
1073 5123
1073 6073
1073 7347
1073 7501
1074 1106
1074 1314
1074 1365
1074 1594
1074 2207
1074 2821
1074 3121
1074 3183
1074 3865
1074 4967
1074 5116
1074 5194
1074 5214
1074 5583
1074 5633
1074 6265
1074 6717
1074 6856
1074 6933
1074 7289
1074 7499
1074 7875
1074 8807
1075 1326
1075 1351
1075 1642
1075 2070
1075 3775
1075 4062
1075 4584
1075 4684
1075 6127
1075 6351
1075 7324
1075 8524
1075 8721
1075 8726
1075 9058
1075 9256
1075 9359
1075 9795
1076 1090
1076 1807
1076 1861
1076 2346
1076 2795
1076 3034
1076 3091
1076 3133
1076 3910
1076 6484
1076 7403
1076 8837
1077 1099
1077 2018
1077 2093
1077 2700
1077 2889
1077 3596
1077 4028
1077 5760
1077 5932
1077 7254
1077 7979
1078 1769
1078 2487
1078 3322
1078 3445
1078 3457
1078 5448
1078 5743
1078 6587
1078 9747
1079 1093
1079 1375
1079 1544
1079 1779
1079 1881
1079 2176
1079 2233
1079 2387
1079 2959
1079 3140
1079 3882
1079 4030
1079 4426
1079 4889
1079 5113
1079 5734
1079 5810
1079 7507
1079 8005
1079 9348
1079 9481
1079 9639
1080 1361
1080 1617
1080 1646
1080 2070
1080 2329
1080 2402
1080 2457
1080 2530
1080 2731
1080 2837
1080 2841
1080 2935
1080 3230
1080 3242
1080 4098
1080 4147
1080 4389
1080 4423
1080 4511
1080 4552
1080 4569
1080 4845
1080 5173
1080 5980
1080 6183
1080 6594
1080 6867
1080 7498
1080 8297
1080 8943
1080 9303
1080 9722
1080 9895
1080 9947
1081 1198
1081 1525
1081 1543
1081 1570
1081 1789
1081 1833
1081 1887
1081 2291
1081 3465
1081 3491
1081 3654
1081 4067
1081 4162
1081 4559
1081 4777
1081 5439
1081 5464
1081 5639
1081 5759
1081 5956
1081 6056
1081 6057
1081 6210
1081 6931
1081 7010
1081 8388
1081 9086
1081 9484
1082 1089
1082 1720
1082 1792
1082 1945
1082 1993
1082 2048
1082 2179
1082 2213
1082 2237
1082 2531
1082 2643
1082 2722
1082 2838
1082 2883
1082 3041
1082 3112
1082 3202
1082 3296
1082 3448
1082 3501
1082 4777
1082 4898
1082 5230
1082 5407
1082 5421
1082 5648
1082 6208
1082 6289
1082 7280
1082 7517
1082 7656
1082 8184
1082 8414
1082 8621
1082 8770
1082 9540
1082 9584
1082 9801
1083 1169
1083 1275
1083 1441
1083 1690
1083 1923
1083 2183
1083 2452
1083 2520
1083 2557
1083 2901
1083 2907
1083 3262
1083 3992
1083 4122
1083 4208
1083 4430
1083 4548
1083 4974
1083 5364
1083 5569
1083 5840
1083 6003
1083 6021
1083 6137
1083 6594
1083 6905
1083 7027
1083 7707
1083 7761
1083 7790
1083 7874
1083 8041
1083 8578
1083 9091
1083 9146
1083 9207
1083 9239
1083 9405
1083 9483
1083 9536
1083 9557
1083 9957
1084 1174
1084 1328
1084 1329
1084 1380
1084 1429
1084 1445
1084 1528
1084 1664
1084 1993
1084 3615
1084 3854
1084 3898
1084 4396
1084 4475
1084 4540
1084 4715
1084 4918
1084 5040
1084 5082
1084 5254
1084 5678
1084 6099
1084 7124
1084 7319
1084 7594
1084 7916
1084 8358
1084 8627
1084 8635
1084 9258
1084 9671
1084 9854
1085 1128
1085 1360
1085 1581
1085 1735
1085 2855
1085 2979
1085 3203
1085 4012
1085 6822
1085 6934
1085 7163
1085 8457
1085 8528
1085 8926
1085 9166
1085 9275
1086 1108
1086 1158
1086 1326
1086 1389
1086 1549
1086 1656
1086 1664
1086 1908
1086 2267
1086 2541
1086 2576
1086 2678
1086 2752
1086 2850
1086 2906
1086 3120
1086 3168
1086 3185
1086 3280
1086 4007
1086 4557
1086 4786
1086 4859
1086 5110
1086 5365
1086 6406
1086 6501
1086 6507
1086 6812
1086 7351
1086 7965
1086 9116
1086 9242
1086 9295
1087 1680
1087 1684
1087 2206
1087 2621
1087 2850
1087 4854
1087 6604
1087 6641
1087 7170
1087 7789
1087 7915
1087 9738
1088 1093
1088 1330
1088 1505
1088 1506
1088 3075
1088 3326
1088 3786
1088 4075
1088 4091
1088 4815
1088 4820
1088 4972
1088 5002
1088 5049
1088 5340
1088 5663
1088 6326
1088 6809
1088 7107
1088 7249
1088 7329
1088 7654
1088 8228
1088 8348
1088 8362
1088 8805
1088 9035
1088 9096
1088 9110
1088 9311
1089 1102
1089 1331
1089 2703
1089 2828
1089 2890
1089 3001
1089 3325
1089 3528
1089 3644
1089 3904
1089 4345
1089 5028
1089 5050
1089 5618
1089 6085
1089 6703
1089 7728
1089 8008
1089 8266
1089 8309
1089 8633
1089 9196
1089 9422
1089 9612
1089 9698
1089 9738
1090 1226
1090 1244
1090 2499
1090 3007
1090 3640
1090 5484
1090 5498
1090 5789
1090 6700
1090 7298
1090 7690
1090 7879
1090 8024
1090 9353
1090 9596
1091 1303
1091 1594
1091 1830
1091 1876
1091 1890
1091 1916
1091 1961
1091 2233
1091 2419
1091 2423
1091 2951
1091 2964
1091 3304
1091 3928
1091 4086
1091 4138
1091 4595
1091 4848
1091 4891
1091 5364
1091 5430
1091 5672
1091 6436
1091 6699
1091 6831
1091 6999
1091 7069
1091 7392
1091 8251
1091 9165
1091 9290
1091 9350
1091 9522
1091 9619
1091 9877
1092 1376
1092 2014
1092 2395
1092 3374
1092 3549
1092 3871
1092 4190
1092 4257
1092 4609
1092 5675
1092 5924
1092 6512
1092 6599
1092 7185
1092 7359
1092 7595
1092 7707
1092 8481
1092 9105
1092 9558
1092 9565
1092 9868
1093 1716
1093 1954
1093 2293
1093 2406
1093 3135
1093 4013
1093 5272
1093 5473
1093 5909
1093 7483
1093 8587
1093 9313
1093 9485
1094 1622
1094 1770
1094 2100
1094 2208
1094 2287
1094 3261
1094 6020
1094 6201
1094 6436
1094 7009
1094 7052
1094 7106
1094 8191
1094 9966
1095 1104
1095 1183
1095 1616
1095 1818
1095 2227
1095 2751
1095 2978
1095 3894
1095 4357
1095 4494
1095 4516
1095 5384
1095 5545
1095 5932
1095 6388
1095 8352
1095 8526
1096 1293
1096 1348
1096 1514
1096 1659
1096 2302
1096 2712
1096 3581
1096 4779
1096 5012
1096 7051
1096 7288
1096 7613
1096 8564
1096 8715
1097 1294
1097 2314
1097 2642
1097 3248
1097 3698
1097 3851
1097 3963
1097 4445
1097 5182
1097 5452
1097 6146
1097 6287
1097 6328
1097 6371
1097 7675
1097 7974
1097 8372
1097 8566
1098 1490
1098 2079
1098 2257
1098 2298
1098 2713
1098 3653
1098 3718
1098 3759
1098 4088
1098 4283
1098 4773
1098 5569
1098 6632
1098 6696
1098 7660
1098 7812
1099 1131
1099 1333
1099 1902
1099 1904
1099 2098
1099 2246
1099 2537
1099 2897
1099 3157
1099 3158
1099 3338
1099 3575
1099 4060
1099 4782
1099 4819
1099 5765
1099 5843
1099 5907
1099 6932
1099 6953
1100 1747
1100 1804
1100 2651
1100 3240
1100 3342
1100 3609
1100 4184
1100 4303
1100 4465
1100 5422
1100 5705
1100 6256
1100 8002
1100 8571
1101 1131
1101 1136
1101 1162
1101 1411
1101 1569
1101 2896
1101 3119
1101 4448
1101 4745
1101 5469
1101 5897
1101 7203
1101 7206
1101 7309
1101 7703
1101 8277
1101 8811
1101 8904
1102 1949
1102 2597
1102 2777
1102 2901
1102 3620
1102 3841
1102 4801
1102 5194
1102 5574
1102 7086
1102 7625
1102 7833
1102 8705
1102 9833
1103 1228
1103 1323
1103 1324
1103 1490
1103 1686
1103 1716
1103 1886
1103 1924
1103 1996
1103 2136
1103 3009
1103 3064
1103 3067
1103 3327
1103 3380
1103 3750
1103 4093
1103 4183
1103 5480
1103 5913
1103 6721
1103 7136
1103 7210
1103 8497
1103 8536
1103 8801
1103 9404
1104 1270
1104 1874
1104 1929
1104 2291
1104 3000
1104 5896
1104 6279
1104 6626
1104 7371
1104 7910
1104 8120
1104 9052
1104 9101
1104 9400
1105 1339
1105 1353
1105 1416
1105 1593
1105 5651
1105 6714
1105 6880
1106 2568
1106 4022
1106 4081
1106 4406
1106 5908
1106 6886
1106 6930
1106 7177
1106 7831
1106 8267
1107 1313
1107 1479
1107 1522
1107 1836
1107 2047
1107 2986
1107 3330
1107 3466
1107 4197
1107 4541
1107 5370
1107 5851
1107 5913
1107 5959
1107 6168
1107 6302
1107 6380
1107 6926
1107 7422
1107 8050
1107 8366
1107 9044
1107 9235
1107 9283
1108 1273
1108 2806
1108 2927
1108 3139
1108 3422
1108 3494
1108 3561
1108 4400
1108 5253
1108 5502
1108 6399
1108 6698
1108 7278
1108 9439
1108 9572
1108 9834
1109 1258
1109 1749
1109 1854
1109 2238
1109 2264
1109 3467
1109 3499
1109 3647
1109 3715
1109 4228
1109 4263
1109 4864
1109 5506
1109 5948
1109 6793
1109 7663
1109 9530
1110 1489
1110 1615
1110 1726
1110 1937
1110 2125
1110 2272
1110 2521
1110 2599
1110 3614
1110 4328
1110 4529
1110 4553
1110 4589
1110 4840
1110 6366
1110 7351
1110 8445
1110 8898
1110 9100
1110 9706
1111 2474
1111 2661
1111 2801
1111 3170
1111 3365
1111 4240
1111 4461
1111 5292
1111 5312
1111 5475
1111 5558
1111 5622
1111 6037
1111 6818
1111 7424
1111 9212
1111 9279
1111 9818
1112 1554
1112 1612
1112 2190
1112 2548
1112 3350
1112 3752
1112 4789
1112 5087
1112 5168
1112 5567
1112 5950
1112 6445
1112 8879
1112 9303
1113 2022
1113 2055
1113 2278
1113 2418
1113 2628
1113 2891
1113 3034
1113 3367
1113 3703
1113 4286
1113 4784
1113 4927
1113 5321
1113 5331
1113 7106
1113 7248
1113 7346
1113 8449
1113 9742
1113 9759
1113 9828
1113 9847
1114 1316
1114 1683
1114 1834
1114 1901
1114 2116
1114 2730
1114 2811
1114 3117
1114 3213
1114 3392
1114 3797
1114 3948
1114 4362
1114 4702
1114 4731
1114 5901
1114 6107
1114 7023
1114 7309
1114 8760
1114 9150
1114 9362
1114 9745
1115 1431
1115 1521
1115 1536
1115 1640
1115 1708
1115 1747
1115 1815
1115 1838
1115 2002
1115 2259
1115 2407
1115 2524
1115 2822
1115 3362
1115 4167
1115 5117
1115 5300
1115 6528
1115 8800
1115 9743
1116 1733
1116 1736
1116 1969
1116 1998
1116 2001
1116 2052
1116 2573
1116 2679
1116 3378
1116 3682
1116 3808
1116 3957
1116 3996
1116 4182
1116 4641
1116 4755
1116 5085
1116 5191
1116 6133
1116 7330
1116 8422
1116 8423
1116 9115
1116 9298
1116 9397
1116 9976
1117 2164
1117 3162
1117 3262
1117 3356
1117 3406
1117 5177
1117 5547
1117 7769
1117 8027
1118 1119
1118 1460
1118 1575
1118 1708
1118 1768
1118 2417
1118 3073
1118 3375
1118 5145
1118 5589
1118 5597
1118 5716
1118 5970
1118 6787
1118 6795
1118 7085
1118 7580
1118 8128
1118 8230
1118 8245
1118 8590
1118 9169
1119 1740
1119 1893
1119 1918
1119 4408
1119 4548
1119 5862
1119 6381
1119 9840
1119 9948
1120 1372
1120 1610
1120 2596
1120 2724
1120 2810
1120 2934
1120 2943
1120 3355
1120 4180
1120 5171
1120 5987
1120 6188
1120 6237
1120 6613
1120 7442
1120 7609
1120 7707
1120 9455
1120 9473
1121 1306
1121 1511
1121 1747
1121 4116
1121 4228
1121 4274
1121 4601
1121 6207
1121 7237
1121 7949
1121 8089
1122 1123
1122 1289
1122 1298
1122 1840
1122 2077
1122 2453
1122 2852
1122 2985
1122 3540
1122 4332
1122 4642
1122 4886
1122 5614
1122 6045
1122 8266
1122 8323
1122 9161
1122 9547
1123 1187
1123 1222
1123 1922
1123 1986
1123 1989
1123 2081
1123 2187
1123 2336
1123 2525
1123 2961
1123 3050
1123 3719
1123 3773
1123 4658
1123 5195
1123 5790
1123 6436
1123 6441
1123 7117
1123 9488
1123 9517
1124 1226
1124 1690
1124 1915
1124 2042
1124 2062
1124 2802
1124 3075
1124 3401
1124 5168
1124 6542
1124 6751
1124 7284
1124 7932
1124 8237
1124 8622
1125 1300
1125 1384
1125 1497
1125 2006
1125 2279
1125 3153
1125 3278
1125 3529
1125 3723
1125 3882
1125 3931
1125 4822
1125 4934
1125 4970
1125 5152
1125 5160
1125 6130
1125 6358
1125 6965
1125 7278
1125 7388
1125 7636
1125 8269
1125 8612
1125 8678
1125 9017
1125 9702
1126 1132
1126 1198
1126 1578
1126 1770
1126 1834
1126 1952
1126 3030
1126 3039
1126 3218
1126 3348
1126 4282
1126 4476
1126 4602
1126 4791
1126 5029
1126 5207
1126 5298
1126 5644
1126 5758
1126 6033
1126 6134
1126 7884
1126 8532
1126 9336
1127 1206
1127 1259
1127 1340
1127 1527
1127 1752
1127 1768
1127 2416
1127 3835
1127 4614
1127 4792
1127 5168
1127 5316
1127 5651
1127 5971
1127 6050
1127 6072
1127 6403
1127 6562
1127 6620
1127 7201
1127 8688
1127 9620
1128 1144
1128 1200
1128 1677
1128 1724
1128 1833
1128 1839
1128 1935
1128 1975
1128 2019
1128 2161
1128 2278
1128 2343
1128 2362
1128 2535
1128 2704
1128 2775
1128 2831
1128 3087
1128 3218
1128 3311
1128 3443
1128 3545
1128 3686
1128 4266
1128 4678
1128 4779
1128 4795
1128 5328
1128 5499
1128 5533
1128 6177
1128 6336
1128 6857
1128 7954
1128 8687
1128 9516
1129 1307
1129 1566
1129 1805
1129 2170
1129 2333
1129 2547
1129 3567
1129 3956
1129 4293
1129 7061
1129 8334
1129 8397
1129 8443
1129 8518
1129 9403
1129 9927
1130 1641
1130 1915
1130 2459
1130 2979
1130 3261
1130 4212
1130 5502
1130 5973
1130 7937
1130 8494
1131 1150
1131 1517
1131 1614
1131 1668
1131 1732
1131 1850
1131 2087
1131 2123
1131 2528
1131 2604
1131 2617
1131 2645
1131 3088
1131 3512
1131 3538
1131 3830
1131 4051
1131 4915
1131 5308
1131 5648
1131 7830
1131 8410
1131 8744
1131 9194
1132 1310
1132 1478
1132 1666
1132 2008
1132 2060
1132 2162
1132 2788
1132 3759
1132 3871
1132 3999
1132 4311
1132 4508
1132 4576
1132 4986
1132 5774
1132 6012
1132 6436
1132 6686
1132 7807
1132 9030
1132 9528
1132 9893
1133 1294
1133 1901
1133 1999
1133 2112
1133 2508
1133 2928
1133 3242
1133 4655
1133 5083
1133 5113
1133 5270
1133 7001
1133 7695
1133 9877
1134 1536
1134 1701
1134 2057
1134 2331
1134 2431
1134 2558
1134 3121
1134 3331
1134 3443
1134 4878
1134 5099
1134 5116
1134 7099
1134 9011
1134 9205
1134 9462
1135 1173
1135 1250
1135 1430
1135 1501
1135 1583
1135 1613
1135 1782
1135 2321
1135 2499
1135 2925
1135 3431
1135 3760
1135 3879
1135 5087
1135 5284
1135 5496
1135 6029
1135 6994
1135 7091
1135 7745
1135 8078
1135 8633
1135 9394
1136 1266
1136 1318
1136 1495
1136 1626
1136 1666
1136 1743
1136 2319
1136 2485
1136 2706
1136 2740
1136 3188
1136 3354
1136 4533
1136 5057
1136 5148
1136 6004
1136 8252
1136 9396
1137 1256
1137 1267
1137 1759
1137 2509
1137 3082
1137 3281
1137 5513
1137 6349
1137 6569
1137 6827
1137 6937
1137 7063
1137 9127
1137 9373
1137 9640
1138 1217
1138 1453
1138 1540
1138 1547
1138 2310
1138 2430
1138 2641
1138 3179
1138 3213
1138 3248
1138 3375
1138 3969
1138 4404
1138 4991
1138 5041
1138 5872
1138 5985
1138 6203
1138 6486
1138 6747
1138 7118
1138 8715
1139 1600
1139 1632
1139 1758
1139 2021
1139 2033
1139 2518
1139 2878
1139 3189
1139 3614
1139 4248
1139 4994
1139 5634
1139 5852
1139 6347
1139 7045
1139 7581
1140 1400
1140 1730
1140 1897
1140 2088
1140 3299
1140 3404
1140 3538
1140 3560
1140 5045
1140 5126
1140 5271
1140 5852
1140 6213
1140 6598
1140 7043
1140 7113
1140 7670
1140 7827
1140 7891
1140 9600
1141 1975
1141 2209
1141 2806
1141 3096
1141 3107
1141 3265
1141 3946
1141 4859
1141 5748
1141 6044
1141 6829
1141 6861
1141 7191
1141 7301
1141 8171
1141 8677
1141 8795
1141 9031
1142 2198
1142 3902
1142 4402
1142 5158
1142 6627
1142 6892
1142 7371
1142 7945
1142 8386
1143 1167
1143 2643
1143 4682
1143 5091
1143 5383
1143 6027
1143 6066
1143 6720
1143 6988
1143 7136
1143 7969
1143 8415
1143 8713
1143 8816
1143 9907
1144 1643
1144 1749
1144 2519
1144 2911
1144 3758
1144 4062
1144 4437
1144 4438
1144 4621
1144 4640
1144 5267
1144 5348
1144 5563
1144 6318
1144 6442
1144 6824
1145 1393
1145 2177
1145 2243
1145 2434
1145 2639
1145 2937
1145 3451
1145 3819
1145 3946
1145 4385
1145 4856
1145 6114
1145 6943
1145 6971
1145 7138
1145 7204
1145 7426
1145 7707
1145 7807
1145 8142
1145 8146
1145 8326
1145 9784
1145 9907
1145 9919
1146 1150
1146 1582
1146 1626
1146 1874
1146 1909
1146 2106
1146 2126
1146 2299
1146 2720
1146 2743
1146 2958
1146 3093
1146 3346
1146 3880
1146 4036
1146 4082
1146 4106
1146 4274
1146 4625
1146 4890
1146 4899
1146 5064
1146 5614
1146 6405
1146 6425
1146 6678
1146 6918
1146 7621
1146 7649
1146 8032
1146 8408
1146 8518
1146 9221
1146 9521
1146 9675
1146 9680
1147 1510
1147 2337
1147 2433
1147 3736
1147 4582
1147 5050
1147 5250
1147 5674
1147 6076
1147 6563
1147 7796
1147 8267
1147 8624
1147 9131
1148 1273
1148 1477
1148 1588
1148 1762
1148 1915
1148 2131
1148 2387
1148 3954
1148 4347
1148 4670
1148 5429
1148 5454
1148 5563
1148 6454
1148 6753
1148 8037
1148 8114
1148 9204
1148 9682
1149 1182
1149 1483
1149 1729
1149 1940
1149 2064
1149 2468
1149 2950
1149 3105
1149 3218
1149 4475
1149 7054
1149 7780
1149 9001
1149 9752
1150 1182
1150 1494
1150 2741
1150 5835
1150 6201
1150 6464
1150 7664
1150 8615
1150 9006
1151 1152
1151 1401
1151 1428
1151 2750
1151 3593
1151 3832
1151 4957
1151 5483
1151 6474
1151 7092
1151 7303
1151 7478
1151 8963
1151 9492
1152 1346
1152 1500
1152 1513
1152 1660
1152 2394
1152 2496
1152 2559
1152 2583
1152 3162
1152 3777
1152 4533
1152 4626
1152 5256
1152 5275
1152 5679
1152 7446
1152 7634
1152 8137
1152 8859
1153 1707
1153 2383
1153 2540
1153 2582
1153 3450
1153 3659
1153 3677
1153 3856
1153 4924
1153 5257
1153 5314
1153 5394
1153 5765
1153 6169
1153 6732
1153 7851
1153 8391
1153 9620
1154 1185
1154 1269
1154 1336
1154 1519
1154 1684
1154 1787
1154 2046
1154 2103
1154 2443
1154 2447
1154 2478
1154 3536
1154 4245
1154 4345
1154 4568
1154 4627
1154 4990
1154 5089
1154 5834
1154 7432
1154 8142
1154 8511
1154 9079
1154 9435
1154 9734
1155 1223
1155 1316
1155 1456
1155 1632
1155 1694
1155 1875
1155 2057
1155 2059
1155 2480
1155 2617
1155 2653
1155 2877
1155 2900
1155 3016
1155 3062
1155 3383
1155 3671
1155 3746
1155 4759
1155 5085
1155 5154
1155 5215
1155 6163
1155 6184
1155 6206
1155 6222
1155 6585
1155 7334
1155 7472
1155 7490
1155 7669
1155 7800
1155 9070
1155 9622
1155 9870
1156 2117
1156 2355
1156 2483
1156 3186
1156 4732
1156 7562
1156 8063
1156 8992
1157 1287
1157 3591
1157 4616
1157 4716
1157 7458
1157 7685
1157 7745
1158 1507
1158 1688
1158 1870
1158 2575
1158 2846
1158 5236
1158 5248
1158 5710
1158 5769
1158 5840
1158 6661
1158 6756
1158 7048
1158 7095
1158 7367
1158 7643
1158 8885
1158 9487
1159 1299
1159 2647
1159 3450
1159 3938
1159 4916
1159 4946
1159 6349
1159 6410
1159 6684
1159 7161
1159 7373
1159 8051
1160 1211
1160 1219
1160 1703
1160 1807
1160 3228
1160 3840
1160 3873
1160 4495
1160 5255
1160 7235
1160 7242
1160 7536
1160 8477
1160 8974
1160 9286
1160 9369
1160 9435
1160 9784
1161 1179
1161 1349
1161 1447
1161 1812
1161 2225
1161 2249
1161 3455
1161 5560
1161 5949
1161 6642
1161 7299
1161 7477
1161 8640
1162 1442
1162 1686
1162 1713
1162 2258
1162 3417
1162 3907
1162 4938
1162 5251
1162 6640
1162 6823
1162 6898
1162 6965
1163 1483
1163 1622
1163 1635
1163 3017
1163 3484
1163 3657
1163 3871
1163 3903
1163 4941
1163 5681
1163 7036
1163 7897
1163 7923
1163 9690
1163 9944
1164 1429
1164 1435
1164 1685
1164 2264
1164 2380
1164 2482
1164 2506
1164 2689
1164 2901
1164 3406
1164 3674
1164 4554
1164 4735
1164 5273
1164 5380
1164 5433
1164 5556
1164 6140
1164 7014
1164 7473
1164 7954
1164 7988
1164 8265
1164 9762
1164 9766
1164 9768
1164 9807
1165 1363
1165 2782
1165 3059
1165 3285
1165 4179
1165 4906
1165 5319
1165 5870
1165 6775
1165 7142
1165 7924
1165 8290
1165 8346
1165 9123
1165 9316
1166 1498
1166 1732
1166 2061
1166 2388
1166 4075
1166 4363
1166 5335
1166 5448
1166 6505
1167 1626
1167 1766
1167 1852
1167 1971
1167 2955
1167 4122
1167 4221
1167 4664
1167 4996
1167 5515
1167 5578
1167 5636
1167 5758
1167 5773
1167 6444
1167 6483
1167 6558
1167 6759
1167 6902
1167 7023
1167 7606
1167 8409
1167 8926
1167 9155
1167 9918
1168 1845
1168 2205
1168 3287
1168 3855
1168 4014
1168 4516
1168 5302
1168 6080
1168 6999
1168 7472
1168 7557
1168 7787
1168 7835
1168 7976
1168 8223
1168 8329
1168 8931
1169 1671
1169 1865
1169 2073
1169 2274
1169 2428
1169 2485
1169 2795
1169 3032
1169 3280
1169 5296
1169 5494
1169 6418
1169 6486
1169 6722
1169 7486
1170 1275
1170 1331
1170 1762
1170 2156
1170 2358
1170 2775
1170 2873
1170 3145
1170 4014
1170 4759
1170 5085
1170 5661
1170 6398
1170 6553
1170 6585
1170 7237
1170 7990
1170 8827
1171 1551
1171 1583
1171 2159
1171 3171
1171 3340
1171 4095
1171 4485
1171 5086
1171 5124
1171 5750
1171 5853
1171 6196
1171 6835
1171 6944
1171 7737
1171 8237
1171 8292
1171 8467
1171 8495
1171 9270
1172 1871
1172 2676
1172 2868
1172 4018
1172 4249
1172 4250
1172 4528
1172 4587
1172 4702
1172 5131
1172 6938
1172 8755
1172 9617
1173 1293
1173 1702
1173 1839
1173 1979
1173 3400
1173 4189
1173 4198
1173 4204
1173 4354
1173 4438
1173 5828
1173 5842
1173 6597
1173 6999
1173 7345
1173 7611
1173 8091
1174 1918
1174 4734
1174 4773
1174 5572
1174 5683
1174 6331
1174 7722
1175 1187
1175 1272
1175 1399
1175 1562
1175 1632
1175 1690
1175 1773
1175 2006
1175 2405
1175 3251
1175 3550
1175 3630
1175 4273
1175 4301
1175 4389
1175 4919
1175 5156
1175 5254
1175 5307
1175 7062
1175 7117
1175 7188
1175 8147
1175 8360
1175 8428
1175 8746
1175 9743
1175 9889
1176 1215
1176 1401
1176 1532
1176 1551
1176 2039
1176 2153
1176 2584
1176 2662
1176 3118
1176 3429
1176 4083
1176 4583
1176 5710
1176 6535
1176 6575
1176 6848
1176 8297
1176 8445
1176 8679
1176 9342
1176 9913
1177 1200
1177 1310
1177 1388
1177 1571
1177 2524
1177 2607
1177 3014
1177 3214
1177 3290
1177 3329
1177 4108
1177 4135
1177 4160
1177 4317
1177 5350
1177 5956
1177 6091
1177 8090
1177 8766
1177 9105
1177 9710
1177 9909
1178 1304
1178 1486
1178 1680
1178 1739
1178 1931
1178 2523
1178 2619
1178 2638
1178 3096
1178 3117
1178 3153
1178 3274
1178 3828
1178 3887
1178 4031
1178 4165
1178 5430
1178 5590
1178 6033
1178 6598
1178 6955
1178 7441
1178 7618
1178 7693
1178 7751
1178 7992
1178 8270
1178 8886
1178 9710
1179 2053
1179 2418
1179 2662
1179 4299
1179 5408
1179 5818
1179 7070
1179 7208
1179 8047
1179 8159
1179 9824
1179 4863
1180 1382
1180 1448
1180 1461
1180 1889
1180 2270
1180 2908
1180 2985
1180 4994
1180 5395
1180 7685
1180 7997
1180 8361
1181 1329
1181 1463
1181 1811
1181 1823
1181 2045
1181 2481
1181 2751
1181 2867
1181 3126
1181 3325
1181 3420
1181 3627
1181 4555
1181 4848
1181 5884
1181 6368
1181 6489
1181 6727
1181 6892
1181 7488
1181 7715
1181 7725
1181 7969
1181 8212
1181 8493
1181 9129
1181 9776
1182 1284
1182 1387
1182 1577
1182 1586
1182 1617
1182 1729
1182 2033
1182 2112
1182 2690
1182 2775
1182 3230
1182 3252
1182 3432
1182 3916
1182 3945
1182 4128
1182 4374
1182 4505
1182 4766
1182 4836
1182 5056
1182 5830
1182 6017
1182 6215
1182 6673
1182 6983
1182 7424
1182 7771
1182 7885
1182 8258
1182 8691
1182 8767
1182 9258
1182 9681
1182 9920
1183 1258
1183 1415
1183 2172
1183 2717
1183 2999
1183 3449
1183 6258
1183 6298
1183 7187
1183 9085
1184 1316
1184 2236
1184 2498
1184 2640
1184 3016
1184 4260
1184 4479
1184 5730
1184 5893
1184 5983
1184 6392
1184 6937
1184 7991
1184 8440
1184 8907
1184 9034
1184 9563
1184 9697
1185 1893
1185 2842
1185 3265
1185 6360
1185 6848
1185 9554
1186 1382
1186 2278
1186 2308
1186 2580
1186 2609
1186 3271
1186 3974
1186 4625
1186 7751
1186 7796
1186 8595
1186 8803
1186 8836
1186 8873
1187 2210
1187 3236
1187 3347
1187 3699
1187 3745
1187 4478
1187 5026
1187 5227
1187 5370
1187 5535
1187 6145
1187 6394
1187 8575
1187 9332
1188 2429
1188 2662
1188 4747
1188 5157
1188 6813
1188 8575
1188 9889
1189 1460
1189 1462
1189 1606
1189 1639
1189 1849
1189 2136
1189 2263
1189 2385
1189 3617
1189 4147
1189 4404
1189 4927
1189 5218
1189 5276
1189 5548
1189 6310
1189 6620
1189 7121
1189 7633
1189 7721
1189 7877
1189 8148
1189 9095
1189 9465
1189 9535
1190 1654
1190 1781
1190 1803
1190 1907
1190 2058
1190 2172
1190 2595
1190 3388
1190 4207
1190 4440
1190 5052
1190 5182
1190 5673
1190 5777
1190 6003
1190 6209
1190 6257
1190 6665
1190 8311
1190 8328
1190 8513
1190 8893
1190 9308
1190 9331
1190 9385
1190 9933
1191 1371
1191 1590
1191 1625
1191 1682
1191 2439
1191 3003
1191 3044
1191 3410
1191 3484
1191 4353
1191 4480
1191 5526
1191 6098
1191 6212
1191 7372
1191 8343
1191 9929
1191 9938
1192 1581
1192 1791
1192 1872
1192 2074
1192 2493
1192 3491
1192 7066
1192 7396
1192 7799
1192 9827
1193 1406
1193 2004
1193 2180
1193 2238
1193 2241
1193 2788
1193 3125
1193 4304
1193 4890
1193 5038
1193 5716
1193 5771
1193 6193
1193 6356
1193 6532
1193 8633
1193 8804
1193 9829
1194 1263
1194 1327
1194 1452
1194 1460
1194 1571
1194 1717
1194 1837
1194 1947
1194 2114
1194 2211
1194 2369
1194 2658
1194 2985
1194 3221
1194 3271
1194 3546
1194 3641
1194 3661
1194 3833
1194 4008
1194 4097
1194 4485
1194 4513
1194 4730
1194 4835
1194 4989
1194 5468
1194 5513
1194 5590
1194 6170
1194 6266
1194 6471
1194 6580
1194 6930
1194 7482
1194 7576
1194 7708
1194 7929
1194 7970
1194 8935
1194 9422
1194 9525
1194 9572
1195 1404
1195 1486
1195 1542
1195 2018
1195 2121
1195 2510
1195 2640
1195 3049
1195 3198
1195 3361
1195 3858
1195 3870
1195 4482
1195 5409
1195 6477
1195 6789
1195 6796
1195 7480
1195 9121
1195 9447
1196 1266
1196 1496
1196 2235
1196 2329
1196 3419
1196 3537
1196 3782
1196 4579
1196 4981
1196 5524
1196 6440
1196 8243
1197 1364
1197 1923
1197 2084
1197 2780
1197 3214
1197 3450
1197 3716
1197 3947
1197 4105
1197 4106
1197 4246
1197 4368
1197 4508
1197 5612
1197 6188
1197 7544
1197 8657
1197 8795
1197 9344
1197 9419
1197 9642
1197 9905
1198 2251
1198 2340
1198 5168
1198 7469
1198 8793
1199 1239
1199 1389
1199 1578
1199 1633
1199 1749
1199 2235
1199 2633
1199 3778
1199 3786
1199 4105
1199 4397
1199 5252
1199 7214
1199 9661
1200 1539
1200 1619
1200 1734
1200 1973
1200 1990
1200 1991
1200 2746
1200 2822
1200 2873
1200 2931
1200 4089
1200 5007
1200 5970
1200 6003
1200 6923
1200 7521
1200 8259
1200 9874
1201 1417
1201 2078
1201 2096
1201 2135
1201 3148
1201 3438
1201 3619
1201 3820
1201 5524
1201 5787
1201 7720
1201 8140
1201 8883
1202 1234
1202 1633
1202 1693
1202 1801
1202 1900
1202 2693
1202 2745
1202 3219
1202 3610
1202 3861
1202 3878
1202 4097
1202 4120
1202 4210
1202 4742
1202 4999
1202 5422
1202 6030
1202 6109
1202 7841
1202 8412
1203 1479
1203 2102
1203 2865
1203 4261
1203 4950
1203 5108
1203 5162
1203 6625
1203 8842
1204 1371
1204 1467
1204 1856
1204 2326
1204 2678
1204 2691
1204 3334
1204 3650
1204 3817
1204 3895
1204 4132
1204 4236
1204 4243
1204 4500
1204 4777
1204 4931
1204 5414
1204 5892
1204 6024
1204 6142
1204 6692
1204 8018
1204 8919
1205 1341
1205 5440
1205 6537
1205 7413
1205 7756
1205 7886
1206 1521
1206 1745
1206 2421
1206 2956
1206 3026
1206 3465
1206 3499
1206 3924
1206 4405
1206 4566
1206 4890
1206 4897
1206 5273
1206 5374
1206 5387
1206 6197
1206 6396
1206 7841
1206 7921
1206 8031
1206 8537
1207 1409
1207 1510
1207 1662
1207 1792
1207 2053
1207 3457
1207 3626
1207 4110
1207 5380
1207 6649
1207 7384
1207 8950
1207 9215
1207 9731
1207 9996
1208 1209
1208 1414
1208 1416
1208 2065
1208 2327
1208 2802
1208 3089
1208 4109
1208 4530
1208 4856
1208 5815
1208 6426
1208 6895
1208 8143
1208 8585
1208 8959
1209 1568
1209 1977
1209 2013
1209 2071
1209 2274
1209 2523
1209 3297
1209 3559
1209 3703
1209 3876
1209 4293
1209 4951
1209 7009
1209 7926
1210 1333
1210 1393
1210 1865
1210 2243
1210 2371
1210 3214
1210 3659
1210 4666
1210 6569
1210 8002
1210 9467
1211 1404
1211 1421
1211 1749
1211 1821
1211 1889
1211 2117
1211 2119
1211 2139
1211 2288
1211 2339
1211 2434
1211 2561
1211 2577
1211 3807
1211 4162
1211 4734
1211 4750
1211 4923
1211 5075
1211 6932
1211 7795
1211 7922
1211 7945
1211 8063
1211 8537
1211 9284
1211 9350
1211 9542
1211 9570
1212 1238
1212 1390
1212 2526
1212 2730
1212 3640
1212 4553
1212 4985
1212 5245
1212 5495
1212 6833
1212 8123
1212 9941
1213 1292
1213 1409
1213 1801
1213 2062
1213 2165
1213 2201
1213 2231
1213 3537
1213 5332
1213 8090
1213 9269
1214 1272
1214 1360
1214 1371
1214 2255
1214 2431
1214 2713
1214 2735
1214 3062
1214 3078
1214 3107
1214 3122
1214 3454
1214 4070
1214 4103
1214 4314
1214 4495
1214 4624
1214 4645
1214 5373
1214 5676
1214 5926
1214 6015
1214 6300
1214 6316
1214 6575
1214 6637
1214 6755
1214 6773
1214 7107
1214 8332
1214 8887
1214 9149
1214 9668
1214 9694
1215 1443
1215 1485
1215 1874
1215 1997
1215 2027
1215 2335
1215 2391
1215 2895
1215 3296
1215 4501
1215 5030
1215 5045
1215 6321
1215 7794
1215 9395
1215 9542
1216 1821
1216 1983
1216 2010
1216 2240
1216 2370
1216 2520
1216 2697
1216 3092
1216 3950
1216 6037
1216 6755
1216 6770
1216 7112
1216 7254
1216 8428
1216 9146
1216 9527
1217 1471
1217 1776
1217 2126
1217 2238
1217 2315
1217 2451
1217 2485
1217 2632
1217 3133
1217 3207
1217 3436
1217 3775
1217 3829
1217 4262
1217 4415
1217 5382
1217 5543
1217 5609
1217 5875
1217 6083
1217 6534
1217 6864
1217 6992
1217 7032
1217 7265
1217 7421
1217 7615
1217 7926
1217 8808
1217 8979
1217 9467
1217 9607
1218 1779
1218 1860
1218 1917
1218 2069
1218 2085
1218 2232
1218 2448
1218 2626
1218 3264
1218 3697
1218 8055
1218 8495
1219 2065
1219 3217
1219 3582
1219 4424
1219 4660
1219 5659
1219 7150
1219 7969
1220 1287
1220 1623
1220 1633
1220 1642
1220 1755
1220 1769
1220 1832
1220 1977
1220 1988
1220 1998
1220 2189
1220 2194
1220 2482
1220 2872
1220 3039
1220 3069
1220 3159
1220 3623
1220 3649
1220 3838
1220 3876
1220 3961
1220 4007
1220 4063
1220 4194
1220 4302
1220 4622
1220 4732
1220 4845
1220 5877
1220 6087
1220 6269
1220 6420
1220 6940
1220 7329
1220 7770
1220 7863
1220 8241
1220 8375
1220 9018
1220 9550
1220 9858
1220 9924
1221 1456
1221 1643
1221 2328
1221 2707
1221 2808
1221 3158
1221 4504
1221 4896
1221 4988
1221 5252
1221 5282
1221 5665
1221 6311
1221 7160
1221 7612
1221 8733
1221 9288
1222 2065
1222 2226
1222 2293
1222 2432
1222 2965
1222 3009
1222 3108
1222 3311
1222 3471
1222 4044
1222 4446
1222 4825
1222 5767
1222 6269
1222 6298
1222 6814
1222 7454
1222 8354
1222 8544
1222 8822
1222 8823
1222 9119
1223 1403
1223 1727
1223 1760
1223 1886
1223 2041
1223 2127
1223 2259
1223 2550
1223 3942
1223 3995
1223 5020
1223 5219
1223 5825
1223 5863
1223 6038
1223 6171
1223 6960
1223 8233
1223 9025
1223 9100
1223 9497
1224 1596
1224 2330
1224 2540
1224 2790
1224 3567
1224 4414
1224 5046
1224 5153
1224 5477
1224 5680
1224 6420
1224 6579
1224 6976
1224 7288
1224 8239
1224 9126
1225 1338
1225 1364
1225 1388
1225 1530
1225 1825
1225 2229
1225 2235
1225 2269
1225 2391
1225 2409
1225 2669
1225 2727
1225 2735
1225 2939
1225 2944
1225 2952
1225 3585
1225 4394
1225 4500
1225 4900
1225 5444
1225 5554
1225 5726
1225 5738
1225 6030
1225 6759
1225 7743
1225 8000
1225 8035
1225 8074
1225 8242
1225 8343
1225 8598
1225 8853
1225 8872
1225 9339
1226 1443
1226 1544
1226 1554
1226 1802
1226 1873
1226 2990
1226 3253
1226 3908
1226 4065
1226 4202
1226 4355
1226 5628
1226 5630
1226 6217
1226 6419
1226 6723
1226 7143
1226 8230
1226 9414
1226 9815
1227 1504
1227 1601
1227 1657
1227 1869
1227 2364
1227 2760
1227 3715
1227 4202
1227 4383
1227 4432
1227 5172
1227 5482
1227 5685
1227 7519
1227 9842
1228 1587
1228 1826
1228 2126
1228 2729
1228 3105
1228 3491
1228 3589
1228 4170
1228 6440
1228 6725
1228 7512
1228 8935
1228 9182
1229 1296
1229 1322
1229 2104
1229 2558
1229 2658
1229 2881
1229 3137
1229 3192
1229 3334
1229 3876
1229 4137
1229 5315
1229 5323
1229 5602
1229 5647
1229 5913
1229 5989
1229 6322
1229 6393
1229 6586
1229 7196
1229 7642
1229 7823
1229 8214
1229 8401
1229 8586
1229 9319
1229 9340
1230 1249
1230 1278
1230 1512
1230 1619
1230 1918
1230 2080
1230 2194
1230 2206
1230 2456
1230 2819
1230 2894
1230 3089
1230 3131
1230 3502
1230 3516
1230 3562
1230 3821
1230 3981
1230 4018
1230 4256
1230 4422
1230 4895
1230 5023
1230 5539
1230 5740
1230 6252
1230 6972
1230 7110
1230 7274
1230 7523
1230 8137
1230 8390
1230 8636
1231 1373
1231 1795
1231 2243
1231 2874
1231 3093
1231 3324
1231 3815
1231 4075
1231 4264
1231 4434
1231 5062
1231 5665
1231 6406
1231 6817
1231 7083
1232 1595
1232 1658
1232 1704
1232 2194
1232 2249
1232 2590
1232 4066
1232 4273
1232 6227
1232 6291
1232 6706
1232 7813
1232 7910
1232 9294
1233 1493
1233 1544
1233 1547
1233 1751
1233 2352
1233 2958
1233 3545
1233 4904
1233 5067
1233 5400
1233 5616
1233 6291
1233 6627
1233 6730
1233 7146
1233 7288
1233 7803
1233 8093
1233 8149
1233 8338
1233 8800
1233 9063
1233 9552
1233 9554
1234 1356
1234 1480
1234 1497
1234 1635
1234 2154
1234 2278
1234 2376
1234 3125
1234 3339
1234 3361
1234 4499
1234 4539
1234 4851
1234 6079
1234 6390
1234 7186
1234 8180
1234 8205
1234 8868
1234 9252
1235 1393
1235 1457
1235 1466
1235 1556
1235 1576
1235 1870
1235 1968
1235 2152
1235 2417
1235 3379
1235 3498
1235 3952
1235 4162
1235 5933
1235 6022
1235 6581
1235 6672
1235 6685
1235 8369
1235 9407
1235 9421
1235 9859
1236 1575
1236 1788
1236 2009
1236 2771
1236 3429
1236 5534
1236 7608
1236 7859
1236 8378
1236 8482
1236 9999
1237 1422
1237 1543
1237 2681
1237 3302
1237 4171
1237 4272
1237 4624
1237 4661
1237 5106
1237 5463
1237 6472
1237 6879
1237 7067
1237 7918
1237 9590
1238 1335
1238 1440
1238 1484
1238 1629
1238 1779
1238 1811
1238 1839
1238 1868
1238 1995
1238 2101
1238 2185
1238 2283
1238 3245
1238 3426
1238 4010
1238 4120
1238 4625
1238 4696
1238 4832
1238 5300
1238 5582
1238 5584
1238 5778
1238 6508
1238 6586
1238 6654
1238 6933
1238 7424
1238 7466
1238 8028
1238 8509
1238 8652
1238 8799
1238 9018
1238 9605
1238 9820
1238 3876
1239 1485
1239 1977
1239 3006
1239 3843
1239 4218
1239 5841
1239 7256
1239 7558
1239 8579
1239 9797
1240 1561
1240 1593
1240 1963
1240 2116
1240 2562
1240 3044
1240 3119
1240 3311
1240 3453
1240 3590
1240 4153
1240 4653
1240 4806
1240 5713
1240 5731
1240 6241
1240 6506
1240 7172
1240 7647
1240 8232
1240 9574
1240 9641
1241 1514
1241 1524
1241 1641
1241 1664
1241 1867
1241 2012
1241 2233
1241 2356
1241 2372
1241 2606
1241 2936
1241 3093
1241 3358
1241 3452
1241 3495
1241 3665
1241 3685
1241 3718
1241 3732
1241 3769
1241 3920
1241 3943
1241 4416
1241 5056
1241 5167
1241 5440
1241 5446
1241 5595
1241 5618
1241 5624
1241 6103
1241 7003
1241 7513
1241 7544
1241 7564
1241 7651
1241 7747
1241 7888
1241 8457
1241 8483
1241 8493
1241 8513
1241 8955
1241 9168
1241 9463
1241 9740
1241 9765
1242 1371
1242 1583
1242 2336
1242 3379
1242 3403
1242 3980
1242 4263
1242 4324
1242 5337
1242 5370
1242 5382
1242 7786
1242 8189
1242 8578
1242 8833
1242 9024
1242 9144
1242 9333
1242 7218
1243 1269
1243 1840
1243 2177
1243 3279
1243 3912
1243 4697
1243 5096
1243 5687
1243 6118
1243 6176
1243 6841
1243 7277
1243 8245
1243 8257
1243 8263
1243 9977
1244 1263
1244 1581
1244 1887
1244 2216
1244 2439
1244 2485
1244 3045
1244 3243
1244 3278
1244 3284
1244 3803
1244 4056
1244 4901
1244 4989
1244 5364
1244 5649
1244 6525
1244 6705
1244 6809
1244 8448
1244 8637
1244 9397
1245 1711
1245 1718
1245 2087
1245 2236
1245 2697
1245 3107
1245 3395
1245 3412
1245 3431
1245 3901
1245 4625
1245 4635
1245 4671
1245 4997
1245 5171
1245 5260
1245 5342
1245 5449
1245 5753
1245 6251
1245 6988
1245 7645
1245 7788
1245 9307
1245 9913
1246 1291
1246 1412
1246 1427
1246 1798
1246 1864
1246 2161
1246 2639
1246 2656
1246 3492
1246 3558
1246 4117
1246 4556
1246 5214
1246 6939
1246 7103
1246 7776
1246 8057
1246 8967
1247 1313
1247 1607
1247 1851
1247 1875
1247 1878
1247 1976
1247 2160
1247 2280
1247 2566
1247 2720
1247 3145
1247 3217
1247 3458
1247 4625
1247 4914
1247 5261
1247 6107
1247 6275
1247 7057
1247 7987
1247 8087
1247 8494
1248 1259
1248 1959
1248 1981
1248 2350
1248 2842
1248 3125
1248 3223
1248 3364
1248 3463
1248 4075
1248 4429
1248 5138
1248 5887
1248 5965
1248 6093
1248 6800
1248 7648
1248 8135
1248 8212
1248 8398
1248 9553
1248 9684
1249 1564
1249 1610
1249 2021
1249 2661
1249 2721
1249 4140
1249 4232
1249 4246
1249 4252
1249 4327
1249 4612
1249 5424
1249 6033
1249 6268
1249 7167
1249 7239
1249 8098
1249 8530
1249 9117
1249 9826
1250 1348
1250 1370
1250 1408
1250 1960
1250 2147
1250 2201
1250 2742
1250 2927
1250 3629
1250 3870
1250 4602
1250 4733
1250 4911
1250 5049
1250 5796
1250 5912
1250 6743
1250 7882
1250 9001
1250 9319
1250 9885
1251 1580
1251 1799
1251 2090
1251 2183
1251 2533
1251 3209
1251 5155
1251 5592
1251 7109
1251 7563
1251 8765
1251 9552
1251 9559
1251 9844
1252 2227
1252 3321
1252 4050
1252 4471
1252 4566
1252 4905
1252 5646
1252 5764
1252 9240
1252 9540
1253 1921
1253 2205
1253 2849
1253 3116
1253 3173
1253 3506
1253 3853
1253 3995
1253 5626
1253 6063
1253 7106
1253 7242
1254 1533
1254 1815
1254 1947
1254 2035
1254 2563
1254 2682
1254 2953
1254 2972
1254 3066
1254 3759
1254 4452
1254 4904
1254 5367
1254 5520
1254 5613
1254 6368
1254 6695
1254 6734
1254 7988
1254 8829
1254 9873
1255 1275
1255 1289
1255 1612
1255 1849
1255 2237
1255 2390
1255 2501
1255 2502
1255 2790
1255 2870
1255 3193
1255 3816
1255 4458
1255 5695
1255 6055
1255 6168
1255 6932
1255 8001
1255 9981
1256 1651
1256 1652
1256 2055
1256 2117
1256 3479
1256 3708
1256 3753
1256 3800
1256 5695
1256 6953
1256 7393
1256 8274
1256 9424
1256 9762
1256 9967
1257 1274
1257 1376
1257 1400
1257 1603
1257 2494
1257 3767
1257 4224
1257 6737
1257 6743
1257 8344
1257 9384
1258 1620
1258 2178
1258 2357
1258 2873
1258 3042
1258 3122
1258 3895
1258 4046
1258 5281
1258 5291
1258 5716
1259 1448
1259 1565
1259 1613
1259 1620
1259 1631
1259 1763
1259 1794
1259 1856
1259 2156
1259 2204
1259 2216
1259 2414
1259 3118
1259 3617
1259 4292
1259 4303
1259 4312
1259 4785
1259 6012
1259 7291
1259 7496
1259 7609
1259 8133
1260 1336
1260 2299
1260 3662
1260 3667
1260 5448
1261 1427
1261 1777
1261 2145
1261 2982
1261 4527
1261 4594
1261 6097
1261 7318
1261 7954
1261 8069
1261 8301
1261 8452
1261 8587
1261 8638
1261 8792
1261 8876
1261 8948
1261 9331
1261 9553
1262 1348
1262 2331
1262 2610
1262 2792
1262 3318
1262 3456
1262 4307
1262 6896
1262 7574
1262 7592
1263 1682
1263 1867
1263 2111
1263 2262
1263 2592
1263 2917
1263 3019
1263 3453
1263 3458
1263 3639
1263 3643
1263 3692
1263 4855
1263 5053
1263 6579
1263 6724
1263 7177
1263 7417
1263 9410
1264 1379
1264 1404
1264 1515
1264 2073
1264 2246
1264 5473
1264 5851
1264 7227
1264 7484
1264 7948
1264 9423
1264 9955
1265 1614
1265 1616
1265 1846
1265 2316
1265 3183
1265 4356
1265 5112
1265 5678
1265 6656
1265 7399
1266 1467
1266 1621
1266 1641
1266 2909
1266 3587
1266 3851
1266 4280
1266 6165
1266 6272
1266 6442
1266 6637
1266 7617
1267 1307
1267 1392
1267 1646
1267 1876
1267 2877
1267 4502
1267 4697
1267 5035
1267 5539
1267 5683
1267 5866
1267 6310
1267 6575
1267 6799
1268 1771
1268 1966
1268 2013
1268 2061
1268 2683
1268 3014
1268 3263
1268 4019
1268 5080
1268 5120
1268 5771
1268 6068
1268 6704
1268 7679
1268 9073
1269 1304
1269 1338
1269 1372
1269 1579
1269 1849
1269 2031
1269 2055
1269 2143
1269 2485
1269 2625
1269 2689
1269 3008
1269 3086
1269 3106
1269 3134
1269 3256
1269 3489
1269 3560
1269 3599
1269 3913
1269 3926
1269 4004
1269 4061
1269 5011
1269 5418
1269 5554
1269 6377
1269 6567
1269 6700
1269 7202
1269 7369
1269 7771
1269 7947
1269 8329
1269 8924
1270 1704
1270 2335
1270 3447
1270 4744
1270 5378
1270 6065
1270 9176
1271 1665
1271 2209
1271 2240
1271 2672
1271 2822
1271 3282
1271 3292
1271 3310
1271 3369
1271 3448
1271 3737
1271 3929
1271 3970
1271 4681
1271 7979
1271 8964
1272 1479
1272 2320
1272 2367
1272 2473
1272 3032
1272 3925
1272 4027
1272 4339
1272 4670
1272 5490
1272 6547
1272 6717
1272 7010
1272 7077
1272 7911
1272 8042
1273 1374
1273 1449
1273 1530
1273 2173
1273 2387
1273 2479
1273 2880
1273 3500
1273 3661
1273 4455
1273 5325
1273 5461
1273 5466
1273 5478
1273 5795
1273 6076
1273 6551
1273 6740
1273 8184
1273 8248
1273 9665
1274 1431
1274 1470
1274 1737
1274 2164
1274 2213
1274 2221
1274 2631
1274 3719
1274 4022
1274 4129
1274 4267
1274 4279
1274 4281
1274 4600
1274 4798
1274 4952
1274 5589
1274 5720
1274 5817
1274 5864
1274 5917
1274 6229
1274 6962
1274 7238
1274 7350
1274 7542
1274 9131
1274 9533
1274 9565
1274 9608
1274 9989
1275 1398
1275 1440
1275 1633
1275 1638
1275 1838
1275 2005
1275 2066
1275 2222
1275 2429
1275 2880
1275 3679
1275 3776
1275 4022
1275 4879
1275 5599
1275 6221
1275 6350
1275 6898
1275 6978
1275 7502
1275 7599
1275 7758
1275 7929
1275 8106
1275 8363
1275 9230
1275 9564
1276 1520
1276 1871
1276 2207
1276 3101
1276 3176
1276 3584
1276 3642
1276 3798
1276 4123
1276 4554
1276 4687
1276 4822
1276 5110
1276 5361
1276 5460
1276 6182
1276 6430
1276 6743
1276 6873
1276 7421
1276 8186
1276 8329
1276 8964
1276 9581
1277 1429
1277 1475
1277 1572
1277 1754
1277 1842
1277 1941
1277 2281
1277 2783
1277 2876
1277 3011
1277 3267
1277 3330
1277 3561
1277 4094
1277 4150
1277 4580
1277 5423
1277 5479
1277 5627
1277 5927
1277 6373
1277 6460
1277 6964
1277 7063
1277 8189
1277 8504
1277 8751
1278 1294
1278 1340
1278 2025
1278 2303
1278 2655
1278 2828
1278 5834
1278 6203
1278 7857
1278 7889
1278 7994
1279 1701
1279 1728
1279 1785
1279 1790
1279 2085
1279 2296
1279 2655
1279 2695
1279 2714
1279 2876
1279 2935
1279 3930
1279 4208
1279 5630
1279 5671
1279 5727
1279 5967
1279 6023
1279 6676
1279 6685
1279 7060
1279 7189
1279 7382
1279 7818
1279 8511
1279 9395
1279 9514
1280 1518
1280 1811
1280 1828
1280 2105
1280 2106
1280 2162
1280 2438
1280 4184
1280 4220
1280 4638
1280 4960
1280 5064
1280 5478
1280 5861
1280 5880
1280 6586
1280 6615
1280 6841
1280 7789
1280 7948
1280 8893
1281 1722
1281 1817
1281 2698
1281 3393
1281 3846
1281 4151
1281 5046
1281 5877
1281 7054
1281 8914
1281 9488
1281 9852
1282 1731
1282 1733
1282 1748
1282 1788
1282 1931
1282 2232
1282 2592
1282 2692
1282 2777
1282 2800
1282 2964
1282 3689
1282 3969
1282 4903
1282 5602
1282 6709
1282 6916
1282 9344
1283 1561
1283 1606
1283 2807
1283 3096
1283 3646
1283 3905
1283 5656
1283 5717
1283 5994
1283 7606
1283 8593
1283 9227
1283 9466
1284 1594
1284 1908
1284 2063
1284 2268
1284 2356
1284 2799
1284 2979
1284 3094
1284 4112
1284 4398
1284 4422
1284 6402
1284 6471
1284 7474
1284 7874
1284 7955
1284 8508
1284 8563
1284 9749
1284 9864
1284 4937
1285 1613
1285 1915
1285 1993
1285 2025
1285 2378
1285 2451
1285 2950
1285 3285
1285 3626
1285 3694
1285 4194
1285 4756
1285 5771
1285 5801
1285 5894
1285 6718
1285 6719
1285 6917
1286 1655
1286 1772
1286 1898
1286 2364
1286 3185
1286 3186
1286 4369
1286 4527
1286 5690
1286 6519
1286 7223
1286 7415
1286 7584
1286 7640
1286 7976
1286 8276
1286 8911
1287 1617
1287 1716
1287 1985
1287 2228
1287 2539
1287 3250
1287 3727
1287 4155
1287 4577
1287 4627
1287 4656
1287 4958
1287 5355
1287 5577
1287 5580
1287 6591
1287 7255
1287 7511
1287 7625
1287 7694
1287 8169
1287 8180
1287 8559
1287 9223
1287 9461
1287 9862
1288 1435
1288 1639
1288 1687
1288 1984
1288 2689
1288 2739
1288 3774
1288 5662
1288 5904
1288 6360
1288 6569
1288 7695
1288 8903
1288 9303
1288 9971
1288 9974
1289 1531
1289 1626
1289 1643
1289 1941
1289 2004
1289 2054
1289 2941
1289 3060
1289 4047
1289 4558
1289 5000
1289 5546
1289 5581
1289 5805
1289 6204
1289 6485
1289 7039
1289 7422
1289 7729
1289 8194
1289 8460
1289 9193
1289 9906
1290 1352
1290 1891
1290 1897
1290 2011
1290 2417
1290 2484
1290 2489
1290 2595
1290 2619
1290 2754
1290 2794
1290 2812
1290 3290
1290 3929
1290 4065
1290 4495
1290 4554
1290 4570
1290 4915
1290 4941
1290 4946
1290 5117
1290 7382
1290 7550
1290 7752
1290 8150
1290 8503
1290 9015
1290 9180
1290 9508
1290 9574
1291 1309
1291 1343
1291 1375
1291 2065
1291 2285
1291 2546
1291 3365
1291 3415
1291 3498
1291 3583
1291 3754
1291 3801
1291 4403
1291 6140
1291 6255
1291 6422
1291 6449
1291 6509
1291 6885
1291 7352
1292 1430
1292 1576
1292 2318
1292 3010
1292 3787
1292 3845
1292 3974
1292 4157
1292 4252
1292 5063
1292 7019
1292 8201
1292 8572
1292 9638
1292 9888
1293 1388
1293 1997
1293 2781
1293 2826
1293 2919
1293 3303
1293 3470
1293 3829
1293 3909
1293 4219
1293 5812
1293 6262
1293 6607
1293 7151
1293 7221
1293 8037
1293 8181
1293 8445
1293 8677
1293 9829
1294 1441
1294 2158
1294 3039
1294 3572
1294 4710
1294 6246
1294 7101
1294 9322
1294 9337
1295 1444
1295 2912
1295 2945
1295 3268
1295 3351
1295 3362
1295 3474
1295 6227
1295 6589
1295 7528
1295 8221
1295 8539
1295 8749
1296 1304
1296 1532
1296 1789
1296 1807
1296 1843
1296 2275
1296 2283
1296 2716
1296 2846
1296 3013
1296 4129
1296 4239
1296 4717
1296 5240
1296 5391
1296 5992
1296 7757
1296 8088
1296 8632
1296 8794
1296 9517
1297 1632
1297 2228
1297 2330
1297 2617
1297 3399
1297 3628
1297 4149
1297 5879
1297 5885
1297 7557
1297 7762
1297 8663
1298 1312
1298 1329
1298 1379
1298 1833
1298 2047
1298 2136
1298 2316
1298 2939
1298 2981
1298 3169
1298 3505
1298 3739
1298 3983
1298 4381
1298 4406
1298 5253
1298 6033
1298 6476
1298 6616
1298 6784
1298 6864
1298 7099
1298 7152
1298 7640
1299 1744
1299 2137
1299 2917
1299 3082
1299 3172
1299 4059
1299 4159
1299 5140
1299 6026
1299 8870
1299 9529
1300 1364
1300 1596
1300 3406
1300 4256
1300 4433
1300 7282
1300 7825
1300 8137
1300 8425
1300 8437
1300 8839
1300 9632
1300 9716
1301 1514
1301 1710
1301 2431
1301 2655
1301 3064
1301 3108
1301 3307
1301 3316
1301 3374
1301 4033
1301 4264
1301 4521
1301 4548
1301 5224
1301 6438
1301 6546
1301 6752
1301 6825
1301 6981
1301 7116
1301 8908
1301 9546
1301 9667
1301 9963
1302 1477
1302 2069
1302 2177
1302 2495
1302 2553
1302 2962
1302 3551
1302 3722
1302 3802
1302 3986
1302 4935
1302 4974
1302 5516
1302 5531
1302 5582
1302 6329
1302 6403
1302 6785
1302 6837
1302 7250
1302 7290
1302 7591
1302 7998
1302 8385
1302 8554
1302 9087
1302 9167
1302 9334
1303 1905
1303 2115
1303 2182
1303 2400
1303 2517
1303 2972
1303 3092
1303 4254
1303 4546
1303 5193
1303 6219
1303 6407
1303 6428
1303 6863
1303 7097
1303 7459
1303 8050
1303 8530
1303 9093
1303 9924
1304 1550
1304 1638
1304 2108
1304 2167
1304 2245
1304 2309
1304 2743
1304 3643
1304 4087
1304 4467
1304 5666
1304 6439
1304 6614
1304 7501
1304 9470
1305 1623
1305 1719
1305 2002
1305 2882
1305 3115
1305 3181
1305 3638
1305 3893
1305 4004
1305 4091
1305 4406
1305 5084
1305 5397
1305 6734
1305 6787
1305 7157
1305 7594
1305 7738
1305 7959
1305 8668
1305 8700
1305 8828
1305 9091
1305 9248
1305 9877
1305 9966
1306 1439
1306 1581
1306 1785
1306 2167
1306 2240
1306 2516
1306 2703
1306 2939
1306 3136
1306 3923
1306 4110
1306 4201
1306 4296
1306 4859
1306 5266
1306 5304
1306 5477
1306 5747
1306 5753
1306 6109
1306 6121
1306 6254
1306 6517
1306 6914
1306 7776
1306 7818
1306 9112
1307 1783
1307 2195
1307 2313
1307 2469
1307 2534
1307 2965
1307 3708
1307 3755
1307 5986
1307 6281
1307 7248
1307 8152
1307 8777
1308 1444
1308 1688
1308 1805
1308 1868
1308 1886
1308 2209
1308 2242
1308 2490
1308 2519
1308 2824
1308 3182
1308 3344
1308 3962
1308 4509
1308 4664
1308 4796
1308 4870
1308 5423
1308 5426
1308 5872
1308 7096
1308 7195
1308 7329
1308 7749
1308 8181
1308 8189
1308 8310
1308 8968
1308 9010
1308 9025
1308 9082
1308 9146
1308 9160
1308 9655
1309 1357
1309 1413
1309 1416
1309 2496
1309 3370
1309 3581
1309 4109
1309 5272
1309 5411
1309 5686
1309 6613
1309 7132
1309 7381
1309 7545
1309 7742
1309 8183
1309 8352
1309 8377
1309 8453
1309 8850
1309 8860
1309 9111
1309 9150
1309 9902
1310 1906
1310 1999
1310 2356
1310 3777
1310 5359
1310 5523
1310 6154
1310 6602
1310 7308
1310 8562
1310 8891
1310 9894
1310 9669
1311 2032
1311 2445
1311 2599
1311 2604
1311 3369
1311 4012
1311 4498
1311 4511
1311 4970
1311 5567
1311 6051
1311 6644
1311 6677
1311 7046
1311 7301
1311 7354
1311 7568
1311 9867
1312 1670
1312 1798
1312 2644
1312 2732
1312 4101
1312 4289
1312 6705
1312 8150
1312 8534
1312 9898
1313 1334
1313 1397
1313 2004
1313 2048
1313 2109
1313 2310
1313 2780
1313 2932
1313 2963
1313 2973
1313 2976
1313 3060
1313 3537
1313 4187
1313 5013
1313 7824
1313 8293
1313 8444
1313 8524
1313 9345
1313 9838
1314 1503
1314 1720
1314 2161
1314 2203
1314 2472
1314 2569
1314 2758
1314 2877
1314 2951
1314 3177
1314 4949
1314 5191
1314 5286
1314 6119
1314 7023
1314 7180
1314 7204
1314 7766
1314 8020
1314 8279
1314 8399
1314 8759
1314 8990
1314 9037
1314 9363
1314 9797
1315 1469
1315 2496
1315 2689
1315 2787
1315 2984
1315 3256
1315 3319
1315 3560
1315 3728
1315 4056
1315 4329
1315 4629
1315 4771
1315 5267
1315 5325
1315 5928
1315 6153
1315 7032
1315 7263
1315 7889
1315 8123
1315 8855
1315 9989
1316 1624
1316 2230
1316 6200
1316 6612
1316 8173
1316 8750
1316 8791
1316 8842
1316 9107
1317 1391
1317 1636
1317 1638
1317 2333
1317 2639
1317 3063
1317 3254
1317 4025
1317 6101
1317 6384
1317 6509
1317 7388
1317 7480
1317 8049
1317 9696
1318 1763
1318 2104
1318 2447
1318 2593
1318 2918
1318 2928
1318 3123
1318 3481
1318 3630
1318 4119
1318 4457
1318 5069
1318 5552
1318 5952
1318 6294
1318 7187
1318 7328
1318 7345
1318 7466
1318 7564
1318 8064
1318 8519
1318 9406
1318 9559
1319 1982
1319 2663
1319 3150
1319 3729
1319 4677
1319 4691
1319 5353
1319 6511
1319 7484
1319 8605
1320 1982
1320 2734
1320 2793
1320 2872
1320 5023
1320 5132
1320 5166
1320 5233
1320 5866
1320 6165
1320 6675
1320 6832
1320 7192
1320 7495
1321 1654
1321 2343
1321 4250
1321 4364
1321 4659
1321 5627
1321 6612
1321 8948
1321 9528
1321 9586
1322 1437
1322 1782
1322 2134
1322 2171
1322 2218
1322 2893
1322 3081
1322 3334
1322 3456
1322 3484
1322 3903
1322 4421
1322 4505
1322 5386
1322 5420
1322 6458
1322 6639
1322 8611
1322 9292
1323 1357
1323 1672
1323 2386
1323 2508
1323 2560
1323 2716
1323 3307
1323 4098
1323 4111
1323 4149
1323 5004
1323 6288
1323 6367
1323 6655
1323 7352
1323 7434
1323 7883
1323 8893
1323 8940
1323 8985
1323 9721
1323 9780
1323 5710
1324 1435
1324 1531
1324 2192
1324 2368
1324 2385
1324 2419
1324 2938
1324 3118
1324 3161
1324 3291
1324 4841
1324 5590
1324 6533
1324 6965
1324 7057
1324 7225
1324 7540
1324 8366
1324 8605
1324 8656
1324 8790
1324 9186
1324 9525
1325 1458
1325 2457
1325 2759
1325 2833
1325 3020
1325 3345
1325 3730
1325 4003
1325 4113
1325 4858
1325 5402
1325 5883
1325 6723
1325 6894
1325 7005
1325 8017
1325 8092
1325 8690
1326 1416
1326 1528
1326 1574
1326 1737
1326 1802
1326 2931
1326 2984
1326 3067
1326 3143
1326 3168
1326 3219
1326 3730
1326 4173
1326 4422
1326 4813
1326 5188
1326 5664
1326 5844
1326 6190
1326 6684
1326 6932
1326 7527
1326 7681
1326 8077
1326 8101
1326 9016
1326 9243
1326 9361
1326 9579
1326 9795
1327 2075
1327 2359
1327 2549
1327 2573
1327 2835
1327 2853
1327 3343
1327 3610
1327 3998
1327 4281
1327 4387
1327 4634
1327 4682
1327 4717
1327 4754
1327 5609
1327 5870
1327 6106
1327 6495
1327 6511
1327 7148
1327 7297
1327 7861
1327 8841
1327 9241
1328 1916
1328 2475
1328 2726
1328 2884
1328 3247
1328 3514
1328 4213
1328 4414
1328 4655
1328 4705
1328 5064
1328 5366
1328 6063
1328 6639
1328 7042
1328 7252
1328 7947
1328 8365
1328 8521
1328 9554
1329 1349
1329 1621
1329 2044
1329 2111
1329 2241
1329 2714
1329 3459
1329 3638
1329 4317
1329 5151
1329 5265
1329 6158
1329 6514
1329 6888
1329 7004
1329 7168
1329 7828
1329 8591
1329 8707
1329 8738
1330 1527
1330 1636
1330 1811
1330 2097
1330 2900
1330 4175
1330 5156
1330 5588
1330 5684
1330 7764
1330 8674
1331 1874
1331 2502
1331 2623
1331 3291
1331 3294
1331 3332
1331 3615
1331 3632
1331 4008
1331 4494
1331 4526
1331 4621
1331 4808
1331 6406
1331 6952
1331 6985
1331 7218
1331 7573
1331 7956
1331 8230
1331 8396
1331 8717
1331 9457
1332 1349
1332 1371
1332 1471
1332 1473
1332 1485
1332 1658
1332 1926
1332 1944
1332 2064
1332 2086
1332 2144
1332 2184
1332 2207
1332 2562
1332 2616
1332 2664
1332 2687
1332 2749
1332 2789
1332 2897
1332 3113
1332 3141
1332 3680
1332 3961
1332 5238
1332 5892
1332 5907
1332 5974
1332 6489
1332 7413
1332 7423
1332 7567
1332 7667
1332 7772
1332 8882
1332 9759
1333 1387
1333 1425
1333 1852
1333 2088
1333 3319
1333 3403
1333 3722
1333 3954
1333 4169
1333 4721
1333 5848
1333 6003
1333 6932
1333 7498
1333 8570
1333 8682
1333 8909
1333 9560
1334 1338
1334 1709
1334 1711
1334 2015
1334 2103
1334 2226
1334 2395
1334 2699
1334 3084
1334 3138
1334 3156
1334 3160
1334 3220
1334 3519
1334 3907
1334 4451
1334 4537
1334 4762
1334 4990
1334 5113
1334 5115
1334 5212
1334 5445
1334 5492
1334 5615
1334 6650
1334 7149
1334 7893
1334 7895
1334 7988
1334 8727
1334 9220
1334 9275
1334 9459
1334 9692
1334 9724
1335 1431
1335 1509
1335 1689
1335 1932
1335 2611
1335 2779
1335 2825
1335 2942
1335 2963
1335 3679
1335 4242
1335 4637
1335 4739
1335 5837
1335 5839
1335 6178
1335 7352
1335 7408
1335 7569
1335 7799
1335 8349
1335 7037
1336 1450
1336 2047
1336 2062
1336 2753
1336 2971
1336 2991
1336 3901
1336 4015
1336 5551
1336 5997
1336 6969
1336 7539
1336 7757
1336 7862
1336 8538
1336 9199
1337 1369
1337 1375
1337 1657
1337 1865
1337 1976
1337 2232
1337 2504
1337 2668
1337 2840
1337 3185
1337 4065
1337 4123
1337 4124
1337 4218
1337 4234
1337 4424
1337 4870
1337 5225
1337 7666
1337 8197
1337 8817
1337 9662
1337 9873
1338 1503
1338 1933
1338 2125
1338 3179
1338 3760
1338 3912
1338 4048
1338 4741
1338 5489
1338 6888
1338 7418
1338 8475
1338 8603
1338 8737
1339 1578
1339 1732
1339 1963
1339 2135
1339 2315
1339 2783
1339 3344
1339 3385
1339 3556
1339 4595
1339 5398
1339 8125
1339 9259
1339 9797
1340 1687
1340 1809
1340 2268
1340 2479
1340 2520
1340 2859
1340 2951
1340 2955
1340 3235
1340 3271
1340 4053
1340 4218
1340 4225
1340 4335
1340 4607
1340 4751
1340 4754
1340 5349
1340 5493
1340 6639
1340 6889
1340 7522
1340 8488
1340 8692
1340 9296
1340 9637
1340 9747
1341 1534
1341 1830
1341 1847
1341 2082
1341 2498
1341 2718
1341 3015
1341 3300
1341 3390
1341 3609
1341 3802
1341 4121
1341 4249
1341 4351
1341 4432
1341 4673
1341 4823
1341 5622
1341 6294
1341 6636
1341 6806
1341 6822
1341 7887
1341 8021
1341 8208
1341 8432
1341 8436
1341 8558
1341 8574
1341 8692
1342 1360
1342 1978
1342 1993
1342 2344
1342 2388
1342 3897
1342 4458
1342 4578
1342 5734
1342 6108
1342 6123
1342 6836
1342 9876
1343 1408
1343 1802
1343 2603
1343 2825
1343 3309
1343 3511
1343 4171
1343 4524
1343 7680
1343 9038
1343 9457
1344 1904
1344 1999
1344 2170
1344 2410
1344 2953
1344 3270
1344 5350
1345 1659
1345 1701
1345 1865
1345 1983
1345 2170
1345 2323
1345 3227
1345 3497
1345 3562
1345 3567
1345 3909
1345 4101
1345 4260
1345 4496
1345 4668
1345 4730
1345 5484
1345 5856
1345 6158
1345 7144
1345 8321
1345 8586
1345 9048
1345 9285
1346 1808
1346 1930
1346 3540
1346 3906
1346 4028
1346 5533
1346 6083
1346 6252
1346 6443
1346 6574
1346 6589
1346 7994
1347 1364
1347 1734
1347 2420
1347 2731
1347 2877
1347 2935
1347 3024
1347 3123
1347 3989
1347 5690
1347 6156
1347 9280
1348 1849
1348 2132
1348 2197
1348 2451
1348 2530
1348 2895
1348 3270
1348 4584
1348 5328
1348 6836
1348 6853
1348 8474
1348 8699
1348 9507
1348 9899
1349 1641
1349 3141
1349 3465
1349 3682
1349 3699
1349 3962
1349 3982
1349 4204
1349 4397
1349 4779
1349 5179
1349 5900
1349 6407
1349 6566
1349 6904
1349 7341
1349 7396
1349 7425
1349 8526
1349 8609
1349 8714
1349 8896
1350 1441
1350 1718
1350 1952
1350 3226
1350 3309
1350 4152
1350 4178
1350 4940
1350 5435
1350 5484
1350 6010
1350 6820
1350 7257
1350 7575
1350 7608
1350 7643
1350 7707
1350 8119
1350 8447
1351 1596
1351 1858
1351 3768
1351 4074
1351 4359
1351 4464
1351 5144
1351 5583
1351 7563
1351 7687
1351 8523
1351 9048
1351 9052
1352 1761
1352 2467
1352 2482
1352 2653
1352 3585
1352 4001
1352 4537
1352 4666
1352 6264
1352 6338
1352 6883
1352 7395
1352 8668
1352 9609
1352 9892
1353 1404
1353 1589
1353 1643
1353 2110
1353 2246
1353 2545
1353 2761
1353 2872
1353 3848
1353 5073
1353 5907
1353 6172
1353 6236
1353 6243
1353 7074
1353 8382
1353 9651
1354 1467
1354 1674
1354 1732
1354 2186
1354 2343
1354 2797
1354 2826
1354 3103
1354 3624
1354 5135
1354 5352
1354 5366
1354 5630
1354 5660
1354 6861
1354 7611
1354 7880
1354 9013
1354 9246
1354 9384
1355 1526
1355 1646
1355 1950
1355 2149
1355 2201
1355 2876
1355 6021
1356 2321
1356 2342
1356 2492
1356 2558
1356 3061
1356 3211
1356 3501
1356 3865
1356 4361
1356 5058
1356 5059
1356 5147
1356 5548
1356 5962
1356 5978
1356 6757
1356 7295
1356 7319
1356 7458
1356 7573
1356 7790
1356 8393
1356 8418
1356 8747
1356 9520
1357 1384
1357 1553
1357 1613
1357 1737
1357 3445
1357 4564
1357 4669
1357 4927
1357 7402
1357 8221
1357 8461
1357 9855
1358 1483
1358 1523
1358 1836
1358 1898
1358 1932
1358 2030
1358 2568
1358 2584
1358 2640
1358 2992
1358 3258
1358 3767
1358 3920
1358 4158
1358 4243
1358 4636
1358 5126
1358 5212
1358 5226
1358 5303
1358 5362
1358 5545
1358 6159
1358 6255
1358 6445
1358 6701
1358 6865
1358 7379
1358 7550
1358 8045
1358 8124
1358 8135
1358 9002
1358 9024
1358 9031
1358 9881
1359 2094
1359 2822
1359 3225
1359 3916
1359 4087
1359 4123
1359 5323
1359 6360
1359 8062
1359 9931
1360 1629
1360 1684
1360 1757
1360 2494
1360 2567
1360 2851
1360 3579
1360 3848
1360 3938
1360 4671
1360 4828
1360 5389
1360 6199
1360 6337
1360 7346
1360 7347
1360 7517
1360 7577
1360 7734
1361 1491
1361 2054
1361 2129
1361 2444
1361 2986
1361 3132
1361 3988
1361 4012
1361 4053
1361 4370
1361 4392
1361 4642
1361 5121
1361 6139
1361 7603
1361 8060
1361 8209
1361 8714
1361 9755
1362 1541
1362 1974
1362 2402
1362 2634
1362 2658
1362 2746
1362 3996
1362 4224
1362 4261
1362 4621
1362 5067
1362 5465
1362 7222
1362 7880
1362 8177
1362 9393
1362 9642
1363 1564
1363 2255
1363 3536
1363 4742
1363 5904
1363 9957
1364 1395
1364 1552
1364 1829
1364 1939
1364 2195
1364 2256
1364 2626
1364 3161
1364 3471
1364 3531
1364 3893
1364 4082
1364 4144
1364 4522
1364 4532
1364 4972
1364 7072
1364 8076
1364 8565
1364 9539
1365 1700
1365 2176
1365 3072
1365 3310
1365 3913
1365 4937
1365 4979
1365 6765
1365 7716
1365 8213
1365 9438
1365 9811
1365 9880
1366 1369
1366 1644
1366 2289
1366 2446
1366 2500
1366 2595
1366 2817
1366 3338
1366 3469
1366 3583
1366 3594
1366 3928
1366 4660
1366 4674
1366 4959
1366 6237
1366 6290
1366 7108
1366 7252
1366 7542
1366 7548
1366 8192
1366 8764
1366 9314
1366 9570
1366 9572
1366 9904
1367 2847
1367 3050
1367 3254
1367 3293
1367 3419
1367 3431
1367 3587
1367 3816
1367 4204
1367 5088
1367 5170
1367 6511
1367 8700
1368 1370
1368 1463
1368 1619
1368 2829
1368 2854
1368 3019
1368 3523
1368 4242
1368 4855
1368 5509
1368 6928
1368 7441
1368 7572
1368 8167
1368 9294
1368 9738
1369 1503
1369 1565
1369 1786
1369 1995
1369 2675
1369 3018
1369 3415
1369 3465
1369 3734
1369 3739
1369 4083
1369 4375
1369 4376
1369 4762
1369 5165
1369 6126
1369 7962
1369 9537
1369 9612
1370 3171
1370 3340
1370 3942
1370 3982
1370 4070
1370 4491
1370 5752
1370 5977
1370 5981
1370 6882
1370 9471
1371 1414
1371 1422
1371 1910
1371 1918
1371 1997
1371 2076
1371 2108
1371 2262
1371 2682
1371 2817
1371 2949
1371 3106
1371 4192
1371 5054
1371 5262
1371 6054
1371 6075
1371 7148
1371 8033
1371 8297
1371 8976
1371 9245
1372 1501
1372 1636
1372 1718
1372 2434
1372 3438
1372 3482
1372 4354
1372 5442
1372 5673
1372 5919
1372 6553
1372 6864
1372 7323
1372 7604
1372 7958
1372 8313
1372 8805
1372 9761
1373 1413
1373 3955
1373 4795
1373 5982
1373 6920
1373 7113
1373 8270
1373 9713
1374 3159
1374 3368
1374 5344
1374 7128
1375 1476
1375 1907
1375 2319
1375 2567
1375 2685
1375 3429
1375 3471
1375 3556
1375 4042
1375 4577
1375 5063
1375 8609
1375 9223
1375 9318
1375 9866
1376 1453
1376 1487
1376 1510
1376 1527
1376 2203
1376 2456
1376 3781
1376 4094
1376 7070
1376 8316
1376 9007
1376 9513
1377 1403
1377 1501
1377 1541
1377 3294
1377 3454
1377 4387
1377 4546
1377 5030
1377 5233
1377 5286
1377 6007
1377 6118
1377 6163
1377 6827
1377 7085
1377 7242
1377 7322
1377 7673
1377 7823
1377 7963
1377 8063
1377 8473
1378 1499
1378 1732
1378 1745
1378 2017
1378 2270
1378 2316
1378 2435
1378 3408
1378 3601
1378 3624
1378 3979
1378 5176
1378 8018
1378 8056
1378 8133
1378 8528
1378 8640
1378 8800
1378 9441
1379 1392
1379 1494
1379 1894
1379 2794
1379 2809
1379 3009
1379 3275
1379 4121
1379 4134
1379 4604
1379 4617
1379 4762
1379 4788
1379 5278
1379 5479
1379 5602
1379 5752
1379 6170
1379 6552
1379 6579
1379 7401
1379 9107
1379 9853
1380 1877
1380 2001
1380 2447
1380 2573
1380 2655
1380 2919
1380 3166
1380 3254
1380 4804
1380 5173
1380 5792
1380 6954
1380 7347
1380 7999
1380 8822
1380 9535
1380 9602
1381 1489
1381 1497
1381 1822
1381 2643
1381 2746
1381 2816
1381 2837
1381 3014
1381 3427
1381 3763
1381 3795
1381 4300
1381 4761
1381 5990
1381 7855
1381 8589
1381 9177
1382 1490
1382 1493
1382 1574
1382 1805
1382 2483
1382 2650
1382 2857
1382 3471
1382 5098
1382 6768
1382 7226
1382 7364
1382 8760
1383 1657
1383 1884
1383 2591
1383 2660
1383 2685
1383 2837
1383 3188
1383 3526
1383 3530
1383 3852
1383 3875
1383 4096
1383 4326
1383 4367
1383 4399
1383 4712
1383 5141
1383 6494
1383 6584
1383 7041
1383 7104
1383 8134
1383 9634
1383 8940
1384 1762
1384 2071
1384 3766
1384 5339
1384 5727
1384 6598
1384 7325
1384 8256
1384 9861
1385 1452
1385 1660
1385 1983
1385 2041
1385 2264
1385 2315
1385 2386
1385 2667
1385 2743
1385 2792
1385 2876
1385 3109
1385 3721
1385 3978
1385 4294
1385 4995
1385 5097
1385 5266
1385 5664
1385 5995
1385 6091
1385 7618
1385 8080
1385 8825
1385 9033
1386 1926
1386 1932
1386 2399
1386 2800
1386 3238
1386 3499
1386 3609
1386 3979
1386 4415
1386 5004
1386 7445
1386 7490
1386 8261
1386 8279
1386 9581
1386 9932
1387 1841
1387 2195
1387 2269
1387 3051
1387 3552
1387 4240
1387 4392
1387 4487
1387 5359
1387 6255
1387 6262
1387 6324
1387 6331
1387 6890
1387 6919
1387 7327
1387 7366
1387 8285
1387 8553
1387 8910
1387 9821
1388 1419
1388 2012
1388 2198
1388 3056
1388 3072
1388 3487
1388 3618
1388 4130
1388 4512
1388 5740
1388 6378
1388 6643
1388 7534
1388 8508
1388 9346
1389 1476
1389 1493
1389 1732
1389 2225
1389 3554
1389 3798
1389 3892
1389 3984
1389 4106
1389 5240
1389 6581
1389 9393
1390 1776
1390 1966
1390 2613
1390 4080
1390 4515
1390 4714
1390 4798
1390 4839
1390 5526
1390 5789
1390 5856
1390 6297
1390 8576
1390 9385
1390 9450
1390 9569
1390 9995
1391 1679
1391 2162
1391 2369
1391 3364
1391 3780
1391 4252
1391 4531
1391 4778
1391 5163
1391 5838
1391 5984
1391 6966
1391 7048
1391 7274
1391 7593
1391 8269
1391 9078
1391 9099
1391 9186
1392 1407
1392 1664
1392 1811
1392 2078
1392 2218
1392 2508
1392 2705
1392 2801
1392 3219
1392 3639
1392 4064
1392 5187
1392 6491
1392 6644
1392 6694
1392 7065
1392 7379
1392 7393
1392 7781
1392 8118
1392 8538
1392 8580
1392 8617
1392 9772
1393 1822
1393 1899
1393 2467
1393 2570
1393 2733
1393 3366
1393 3726
1393 4456
1393 5028
1393 5168
1393 5427
1393 5588
1393 6005
1393 6450
1393 6651
1393 6715
1393 6776
1393 6917
1393 9014
1393 9590
1394 2833
1394 3428
1394 3430
1394 3473
1394 5494
1394 5498
1394 5619
1394 7894
1394 9292
1395 1487
1395 1517
1395 1596
1395 1712
1395 1717
1395 2551
1395 2707
1395 2728
1395 2778
1395 2839
1395 3166
1395 3319
1395 3602
1395 3707
1395 3847
1395 4608
1395 4774
1395 5515
1395 6728
1395 8317
1395 8362
1395 9018
1395 9497
1395 9904
1396 1640
1396 1795
1396 1844
1396 1859
1396 2126
1396 2186
1396 2355
1396 2957
1396 2958
1396 3086
1396 3134
1396 3649
1396 3927
1396 4440
1396 5236
1396 5829
1396 6204
1396 6717
1396 6841
1396 7129
1396 7132
1396 7280
1396 7309
1396 7603
1396 7678
1396 7906
1396 8815
1396 8856
1396 9472
1396 9916
1396 9973
1397 1580
1397 2157
1397 2159
1397 2292
1397 2763
1397 4576
1397 4901
1397 5032
1397 5501
1397 5955
1397 6121
1397 6471
1397 6665
1397 7659
1397 8536
1397 9044
1397 9414
1397 9687
1397 9723
1398 1837
1398 2119
1398 2130
1398 2671
1398 4017
1398 4232
1398 5059
1398 5519
1398 5735
1398 5739
1398 7639
1398 7842
1398 8525
1398 9326
1398 9609
1399 1489
1399 1508
1399 1854
1399 3350
1399 5835
1399 6960
1399 7977
1399 9484
1399 9908
1399 9996
1400 2007
1400 2702
1400 3143
1400 3810
1400 4497
1400 5707
1400 5963
1400 6325
1400 6429
1400 6448
1400 6484
1400 8093
1400 9128
1400 9253
1400 9259
1401 3098
1401 3105
1401 3769
1401 4472
1401 4708
1401 9222
1401 9571
1402 2197
1402 2209
1402 2487
1402 2696
1402 2830
1402 3309
1402 4085
1402 4112
1402 5508
1402 5571
1402 6944
1402 7507
1402 8334
1403 3040
1403 3711
1403 4928
1403 7525
1403 7658
1403 7838
1404 1920
1404 2082
1404 2214
1404 2517
1404 2796
1404 3950
1404 4428
1404 4612
1404 4795
1404 5347
1404 6864
1404 9521
1404 9541
1405 1678
1405 2022
1405 2042
1405 2135
1405 2728
1405 3216
1405 3880
1405 4838
1405 4847
1405 5663
1405 5735
1405 6967
1405 7174
1405 8120
1405 8535
1405 8904
1405 8971
1406 1462
1406 1488
1406 1591
1406 1606
1406 1616
1406 1711
1406 1815
1406 2071
1406 2122
1406 2531
1406 2852
1406 3525
1406 3634
1406 3729
1406 4652
1406 5023
1406 5185
1406 5282
1406 5455
1406 5709
1406 7236
1406 7624
1406 7894
1406 8305
1406 9134
1406 9710
1407 1668
1407 1689
1407 1757
1407 2003
1407 2387
1407 2389
1407 2392
1407 2555
1407 2782
1407 2892
1407 3934
1407 3954
1407 4218
1407 4387
1407 5391
1407 5551
1407 5635
1407 6815
1407 7415
1407 9335
1407 9340
1407 9851
1408 1878
1408 2355
1408 2421
1408 2863
1408 2924
1408 3561
1408 4008
1408 4178
1408 4760
1408 4868
1408 5383
1408 5413
1408 6375
1408 6681
1408 6765
1408 7777
1408 8208
1408 8566
1408 8891
1409 1546
1409 1554
1409 1889
1409 1955
1409 2036
1409 2060
1409 2092
1409 2094
1409 2158
1409 2160
1409 2292
1409 2445
1409 2527
1409 2647
1409 2907
1409 3315
1409 4464
1409 4475
1409 4894
1409 5597
1409 6344
1409 6399
1409 6699
1409 6753
1409 7972
1409 8022
1409 8368
1409 8438
1409 8614
1409 9573
1409 9704
1409 9712
1410 2210
1410 2251
1410 3134
1410 3484
1410 4915
1410 9133
1410 9536
1411 1645
1411 1841
1411 1967
1411 2421
1411 2506
1411 2692
1411 3136
1411 3686
1411 4005
1411 4810
1411 5700
1411 6038
1411 6634
1411 6650
1411 6808
1411 7178
1411 7892
1411 8082
1411 9157
1412 1618
1412 1709
1412 2075
1412 2079
1412 2370
1412 2892
1412 2989
1412 3863
1412 4225
1412 4372
1412 4404
1412 4413
1412 4492
1412 4803
1412 5685
1412 5722
1412 5834
1412 6035
1412 6892
1412 6997
1412 7005
1412 7827
1413 2276
1413 2806
1413 2822
1413 3010
1413 3054
1413 3935
1413 5154
1413 5511
1413 5834
1413 7002
1413 8376
1414 1600
1414 2003
1414 2044
1414 2072
1414 2235
1414 2345
1414 2393
1414 3207
1414 3523
1414 3907
1414 4012
1414 4292
1414 4515
1414 4985
1414 5368
1414 6272
1414 6626
1414 7694
1414 8268
1414 8342
1414 9602
1415 1488
1415 1768
1415 2665
1415 2722
1415 2940
1415 3744
1415 4822
1415 6906
1415 7897
1415 8431
1415 8636
1415 9834
1416 1456
1416 2163
1416 2201
1416 2260
1416 2268
1416 2665
1416 2742
1416 3044
1416 3294
1416 4171
1416 4504
1416 4545
1416 4576
1416 4700
1416 4847
1416 7051
1416 7250
1416 7646
1416 9062
1416 9569
1416 9963
1417 1444
1417 1588
1417 2763
1417 2964
1417 3577
1417 3713
1417 3928
1417 4110
1417 4197
1417 5944
1417 6291
1417 7314
1417 8246
1417 8851
1417 9508
1418 1437
1418 1821
1418 2015
1418 2049
1418 2088
1418 2231
1418 2343
1418 2611
1418 3250
1418 3358
1418 3481
1418 3538
1418 4129
1418 4568
1418 4632
1418 4647
1418 5087
1418 5672
1418 5908
1418 6002
1418 6881
1418 7253
1418 7692
1418 7721
1418 8060
1418 8280
1418 8585
1418 8895
1418 8960
1418 9201
1418 9731
1419 2252
1419 2407
1419 2561
1419 3278
1419 3479
1419 3501
1419 3879
1419 4070
1419 4541
1419 7205
1419 8188
1419 8241
1419 8295
1419 9865
1419 9893
1419 9914
1420 1606
1420 1611
1420 3404
1420 4912
1420 5195
1420 7429
1420 7599
1420 8439
1420 9091
1420 9138
1420 9243
1421 1698
1421 1949
1421 1984
1421 2148
1421 2331
1421 2827
1421 3940
1421 4414
1421 5724
1421 6078
1421 6821
1421 7141
1421 7664
1422 1576
1422 2038
1422 4208
1422 4231
1422 4487
1422 4489
1422 4747
1422 5627
1422 5917
1422 6018
1422 6142
1422 6238
1422 6953
1422 8301
1422 9319
1422 9491
1422 9739
1423 2113
1423 2295
1423 2318
1423 2452
1423 2774
1423 3913
1423 4166
1423 4253
1423 5011
1423 5253
1423 5283
1423 5528
1423 5638
1423 6733
1423 6988
1423 7256
1423 7757
1423 7854
1423 8731
1423 9425
1424 1570
1424 1683
1424 1731
1424 1736
1424 1803
1424 1958
1424 2619
1424 3139
1424 3930
1424 4213
1424 4981
1424 5446
1424 5651
1424 6235
1424 6236
1424 6678
1424 7923
1424 8490
1424 8765
1424 9311
1424 9745
1425 1429
1425 2467
1425 2504
1425 2923
1425 3087
1425 4308
1425 6354
1425 7610
1425 8093
1425 8413
1425 9214
1426 1450
1426 1497
1426 1916
1426 3633
1426 3924
1426 4248
1426 5320
1426 5795
1426 6478
1426 7242
1426 7788
1426 8054
1426 8748
1426 9190
1426 9242
1427 1592
1427 3218
1427 3730
1427 3752
1427 5183
1427 6008
1427 6104
1427 7011
1427 7057
1427 7264
1427 9276
1427 9706
1428 1747
1428 1753
1428 2340
1428 3420
1428 3727
1428 4317
1428 5238
1428 5436
1428 6871
1428 7935
1428 8323
1428 8492
1429 1938
1429 2737
1429 2776
1429 3028
1429 3212
1429 3330
1429 4373
1429 4419
1429 4869
1429 4976
1429 5502
1429 5912
1429 6521
1429 6643
1429 7275
1429 9962
1430 1575
1430 1609
1430 1647
1430 1702
1430 1943
1430 2157
1430 3400
1430 3563
1430 3734
1430 3781
1430 4162
1430 5493
1430 5941
1430 5975
1430 7534
1430 8061
1430 8316
1430 8697
1430 9297
1431 1535
1431 1881
1431 2320
1431 2810
1431 2881
1431 3359
1431 3913
1431 4136
1431 4895
1431 5006
1431 5376
1431 5905
1431 6820
1431 7420
1431 7630
1431 8467
1431 8749
1431 9087
1431 9362
1432 1655
1432 1779
1432 2019
1432 2020
1432 2024
1432 2128
1432 3191
1432 3345
1432 3534
1432 3765
1432 3979
1432 4467
1432 4673
1432 5174
1432 6365
1432 6538
1432 6660
1432 7398
1432 7626
1432 8019
1432 8388
1432 8930
1432 9278
1432 9396
1433 2630
1433 3315
1433 3605
1433 4187
1433 5833
1433 6138
1433 6170
1433 7308
1433 7564
1433 7751
1433 8312
1434 1458
1434 2359
1434 2529
1434 2745
1434 2889
1434 2963
1434 3416
1434 3463
1434 3651
1434 4567
1434 4759
1434 5045
1434 5441
1434 5960
1434 6363
1434 7678
1434 8158
1434 8523
1434 9035
1435 1533
1435 1590
1435 1711
1435 1766
1435 2134
1435 2244
1435 2487
1435 2706
1435 2933
1435 3103
1435 3268
1435 3547
1435 3825
1435 4151
1435 4543
1435 4883
1435 5028
1435 5498
1435 5536
1435 5661
1435 6446
1435 6685
1435 6911
1435 6987
1435 7247
1435 7414
1435 7754
1435 8738
1435 9564
1436 1486
1436 1592
1436 1632
1436 1800
1436 1896
1436 1987
1436 2003
1436 2260
1436 2456
1436 2461
1436 2733
1436 3129
1436 3247
1436 3548
1436 3596
1436 3948
1436 3990
1436 4201
1436 4279
1436 4292
1436 4333
1436 4486
1436 4515
1436 4664
1436 4943
1436 5165
1436 5474
1436 6173
1436 6622
1436 7029
1436 7291
1436 7584
1436 7706
1436 7741
1436 8324
1436 8608
1436 8912
1436 9612
1436 9926
1437 1454
1437 1471
1437 1603
1437 1685
1437 2241
1437 2383
1437 2916
1437 3129
1437 3398
1437 3435
1437 4064
1437 4722
1437 4771
1437 4859
1437 5545
1437 5607
1437 5648
1437 5697
1437 6434
1437 7030
1437 7067
1437 7214
1437 7652
1437 8399
1437 8821
1437 8924
1437 9229
1437 9720
1437 9946
1438 1574
1438 1723
1438 4491
1438 4673
1438 4935
1438 7580
1438 7902
1438 8902
1438 9458
1439 1521
1439 1598
1439 1822
1439 1854
1439 2724
1439 3922
1439 4638
1439 5772
1439 6402
1439 6544
1439 6810
1439 7262
1439 8085
1439 8134
1439 8422
1439 9456
1439 9506
1440 1564
1440 1644
1440 1850
1440 2330
1440 2701
1440 3070
1440 3236
1440 3424
1440 3529
1440 3538
1440 3569
1440 3788
1440 3881
1440 4082
1440 4280
1440 4491
1440 5382
1440 6140
1440 6536
1440 6688
1440 6700
1440 6833
1440 7049
1440 7407
1440 7519
1440 7551
1440 7880
1440 7891
1440 7994
1440 8033
1440 8213
1440 8428
1440 8766
1440 8891
1440 9223
1440 9730
1440 9799
1441 1630
1441 2147
1441 2691
1441 2803
1441 3002
1441 3372
1441 3611
1441 3893
1441 5640
1441 5762
1441 6466
1441 7392
1441 7763
1441 8099
1441 8459
1441 8464
1441 8799
1441 9583
1441 9701
1442 1473
1442 1842
1442 2417
1442 2465
1442 2616
1442 2778
1442 3153
1442 3464
1442 4470
1442 4768
1442 5070
1442 5398
1442 5574
1442 6032
1442 6327
1442 6708
1442 8171
1442 8451
1442 9379
1442 9443
1442 9521
1442 9584
1442 9831
1443 2137
1443 2227
1443 2421
1443 2679
1443 3175
1443 3414
1443 3531
1443 4428
1443 4438
1443 4803
1443 4822
1443 5262
1443 5770
1443 7077
1443 7342
1443 7663
1443 8696
1443 8928
1443 8931
1443 9180
1443 9185
1443 9551
1443 9765
1443 9819
1444 1696
1444 2259
1444 2271
1444 2378
1444 2489
1444 2850
1444 2979
1444 3083
1444 3825
1444 4145
1444 4399
1444 4499
1444 4888
1444 5280
1444 5993
1444 7192
1444 7563
1444 8720
1444 9102
1444 9173
1445 1480
1445 1723
1445 1781
1445 1821
1445 1942
1445 2415
1445 2521
1445 2807
1445 3779
1445 3980
1445 4091
1445 4242
1445 4344
1445 4660
1445 5130
1445 5304
1445 6284
1445 6879
1445 7163
1445 7593
1445 7595
1445 8937
1445 9836
1446 1875
1446 2203
1446 4886
1446 4969
1446 5048
1446 5513
1446 6290
1446 7286
1446 8178
1446 8199
1447 1511
1447 2099
1447 6583
1447 7873
1447 8094
1447 8418
1447 8529
1448 1869
1448 2144
1448 4126
1448 4222
1448 4302
1448 7495
1448 8923
1449 2345
1449 2426
1449 3307
1449 3751
1449 4514
1449 4656
1449 6516
1449 7110
1449 9556
1450 1650
1450 2399
1450 2869
1450 3419
1450 3475
1450 3967
1450 4072
1450 4206
1450 4701
1450 5815
1450 6567
1450 7139
1450 7593
1450 9195
1450 9292
1450 9450
1451 2310
1451 2824
1451 2958
1451 3038
1451 3076
1451 3588
1451 3894
1451 4029
1451 4563
1451 5306
1451 7132
1451 7504
1451 8055
1451 9356
1452 1642
1452 1683
1452 1692
1452 2154
1452 2178
1452 2598
1452 2638
1452 3681
1452 3809
1452 3981
1452 4158
1452 4191
1452 4220
1452 4662
1452 4663
1452 4794
1452 4844
1452 4957
1452 5292
1452 6534
1452 7974
1452 8326
1452 9020
1452 9203
1452 9226
1452 9780
1453 1726
1453 2029
1453 2209
1453 2251
1453 2736
1453 3055
1453 3297
1453 3350
1453 3789
1453 4238
1453 4435
1453 5353
1453 5483
1453 5777
1453 5882
1453 5978
1453 6464
1453 6916
1453 7259
1453 7425
1453 8928
1453 9185
1453 9354
1453 9450
1453 9565
1454 1743
1454 2318
1454 2420
1454 3707
1454 4044
1454 5043
1454 5056
1454 5506
1454 6258
1454 6507
1454 6825
1454 7139
1454 8763
1454 8769
1454 8966
1454 9681
1455 1951
1455 2372
1455 2957
1455 3298
1455 3348
1455 3881
1455 3971
1455 4168
1455 4423
1455 4454
1455 4476
1455 4613
1455 8365
1455 8585
1455 8711
1455 9212
1456 1516
1456 1545
1456 2708
1456 3160
1456 3252
1456 3470
1456 3749
1456 3862
1456 4345
1456 4950
1456 6411
1456 6622
1456 7359
1456 7648
1456 7765
1456 8343
1456 8552
1456 9775
1457 1499
1457 1569
1457 4985
1457 5030
1457 7026
1457 7904
1457 8318
1457 8520
1458 1851
1458 3526
1458 3779
1458 4258
1458 4408
1458 4483
1458 5917
1458 6817
1458 7501
1458 8339
1458 8511
1458 8632
1459 1562
1459 1958
1459 2500
1459 2579
1459 2690
1459 3527
1459 4083
1459 5818
1459 6187
1459 7881
1459 8389
1459 9257
1459 9693
1460 1522
1460 2029
1460 2290
1460 2353
1460 2533
1460 2834
1460 3151
1460 4224
1460 4476
1460 4621
1460 4871
1460 5586
1460 5675
1460 5686
1460 6193
1460 6292
1460 7406
1460 8346
1460 8661
1460 9733
1461 1736
1461 2122
1461 2187
1461 2466
1461 3234
1461 5152
1461 7175
1461 7524
1461 7560
1461 9075
1461 9258
1462 1513
1462 1676
1462 1937
1462 2028
1462 2301
1462 2353
1462 2471
1462 2787
1462 3005
1462 3061
1462 3202
1462 4035
1462 4044
1462 4205
1462 4213
1462 4248
1462 4290
1462 4901
1462 5122
1462 5289
1462 6947
1462 7030
1462 7130
1462 7637
1462 7862
1462 8281
1462 8809
1462 8969
1462 9022
1462 9067
1462 9417
1462 9565
1462 9729
1463 2680
1463 2737
1463 3432
1463 4724
1463 5353
1463 6231
1463 6372
1463 7257
1463 8486
1464 1651
1464 1733
1464 2164
1464 2394
1464 2905
1464 3081
1464 3284
1464 3325
1464 3681
1464 3733
1464 4398
1464 4511
1464 4859
1464 4878
1464 4896
1464 5041
1464 6042
1464 6142
1464 7588
1464 7699
1464 8532
1464 8719
1464 9873
1464 9969
1464 9988
1465 2263
1465 2758
1465 2823
1465 6408
1465 7019
1465 7557
1465 7691
1465 7903
1465 8793
1466 1536
1466 2415
1466 2421
1466 2482
1466 2552
1466 3246
1466 3407
1466 4013
1466 4819
1466 4982
1466 5589
1466 7103
1466 7731
1466 7902
1466 8841
1466 9416
1467 1742
1467 2294
1467 2919
1467 3659
1467 3987
1467 4059
1467 4727
1467 4807
1467 6180
1467 6487
1467 7087
1467 7096
1467 7461
1467 7890
1467 7963
1467 8033
1467 8195
1467 8514
1467 8657
1467 9967
1468 1706
1468 2168
1468 2267
1468 2530
1468 3056
1468 3070
1468 3749
1468 4026
1468 4379
1468 4481
1468 4764
1468 4836
1468 5382
1468 6836
1468 8205
1468 9081
1469 1789
1469 2263
1469 2401
1469 3651
1469 5503
1469 5507
1469 6143
1469 6184
1469 6215
1469 7315
1469 8409
1469 8547
1469 8750
1469 9404
1469 9535
1469 9950
1469 9962
1470 4750
1470 5037
1470 5140
1470 6222
1470 8480
1470 9204
1471 1824
1471 1848
1471 2148
1471 2196
1471 2606
1471 2638
1471 2669
1471 2949
1471 2964
1471 3073
1471 3111
1471 3422
1471 4175
1471 4531
1471 5721
1471 5726
1471 6459
1471 7024
1471 7458
1471 7673
1471 9499
1472 1540
1472 2762
1472 2857
1472 3018
1472 3083
1472 3208
1472 3667
1472 3759
1472 4334
1472 4894
1472 5308
1472 6616
1472 6959
1472 7835
1472 9268
1473 1611
1473 1629
1473 1771
1473 1777
1473 2334
1473 2339
1473 2638
1473 2673
1473 3055
1473 3743
1473 3947
1473 4258
1473 4274
1473 4337
1473 4740
1473 5176
1473 5961
1473 6131
1473 6453
1473 7528
1473 7631
1473 8253
1473 8631
1474 1769
1474 1936
1474 2140
1474 2229
1474 2429
1474 2501
1474 3064
1474 3294
1474 3517
1474 3783
1474 3912
1474 4583
1474 4614
1474 4700
1474 5047
1474 5728
1474 5747
1474 5787
1474 5865
1474 7285
1474 9023
1474 9507
1475 1743
1475 2047
1475 2071
1475 4125
1475 4446
1475 4849
1475 5564
1475 7656
1475 8121
1475 8156
1475 8511
1475 8895
1475 9455
1476 2054
1476 2954
1476 3378
1476 3891
1476 3909
1476 4201
1476 4702
1476 4892
1476 6271
1476 6657
1476 7701
1476 8356
1476 8377
1477 1708
1477 1710
1477 1721
1477 1800
1477 3502
1477 3794
1477 4100
1477 4141
1477 4228
1477 4586
1477 4938
1477 5218
1477 5248
1477 5748
1477 6471
1477 6735
1477 6795
1477 7597
1477 7720
1478 2444
1478 2486
1478 2522
1478 3220
1478 3715
1478 4352
1478 4746
1478 4877
1478 4908
1478 4988
1478 5202
1478 5486
1478 5557
1478 6658
1478 7872
1478 8561
1478 9230
1478 9891
1478 9970
1479 1593
1479 1697
1479 1783
1479 2151
1479 2765
1479 2895
1479 2904
1479 3897
1479 4224
1479 4484
1479 6953
1479 7194
1479 8625
1479 9622
1479 9729
1480 1489
1480 2504
1480 2851
1480 2867
1480 2954
1480 3218
1480 3602
1480 3696
1480 3892
1480 4834
1480 5009
1480 5542
1480 5801
1480 6181
1480 6589
1480 7408
1480 8893
1480 8981
1481 1596
1481 1719
1481 5012
1481 5855
1481 6141
1481 6158
1481 7128
1481 7485
1481 7943
1481 8260
1482 1772
1482 1957
1482 2215
1482 2581
1482 2722
1482 2983
1482 3280
1482 4214
1482 4537
1482 4692
1482 5215
1482 5532
1482 6144
1482 6195
1482 6426
1482 6468
1482 7805
1482 9820
1482 9834
1482 9872
1482 9981
1483 1831
1483 1980
1483 2076
1483 3102
1483 3434
1483 3655
1483 4054
1483 4349
1483 4413
1483 5107
1483 5861
1483 6029
1483 6881
1483 7140
1483 7526
1483 8479
1483 9324
1483 9424
1483 9788
1484 1590
1484 3394
1484 3571
1484 5756
1484 5824
1484 5946
1484 6038
1484 6205
1484 7284
1484 7292
1484 9296
1484 9441
1484 9862
1485 1512
1485 2211
1485 2562
1485 2870
1485 3002
1485 3052
1485 3083
1485 4388
1485 5172
1485 5332
1485 5594
1485 5664
1485 6447
1485 8543
1485 9399
1486 1497
1486 1506
1486 2188
1486 3572
1486 3745
1486 5186
1486 7104
1486 8659
1486 9053
1486 9427
1486 9651
1487 2880
1487 4092
1487 5577
1487 5993
1487 6529
1487 6579
1487 6695
1487 7154
1487 7534
1487 7612
1488 1912
1488 2001
1488 2153
1488 2866
1488 3496
1488 3671
1488 5306
1488 5869
1488 7533
1488 8008
1488 8237
1488 9140
1488 9959
1489 1602
1489 1789
1489 2010
1489 3603
1489 3974
1489 4984
1489 5267
1489 5678
1489 5791
1489 6725
1489 6968
1489 7056
1489 7684
1489 8819
1489 9589
1490 2052
1490 2192
1490 2544
1490 2912
1490 3495
1490 3811
1490 4413
1490 4901
1490 5417
1490 6263
1490 9145
1490 9206
1490 9279
1491 1762
1491 1853
1491 2653
1491 2827
1491 3264
1491 3513
1491 3632
1491 3763
1491 3836
1491 3918
1491 4549
1491 4628
1491 4828
1491 4882
1491 5349
1491 5947
1491 6676
1491 8177
1491 8420
1491 8668
1491 9040
1491 9062
1491 9636
1491 9849
1492 1606
1492 1633
1492 1669
1492 1893
1492 2188
1492 2743
1492 3058
1492 3263
1492 4058
1492 4076
1492 4169
1492 4524
1492 4670
1492 5160
1492 6143
1492 6642
1492 7536
1492 8762
1492 8956
1492 9323
1493 2337
1493 2820
1493 2826
1493 3645
1493 4343
1493 4846
1493 6627
1493 6770
1493 7172
1493 9273
1494 1595
1494 1602
1494 1857
1494 1961
1494 2011
1494 2027
1494 2163
1494 2196
1494 2655
1494 2839
1494 3616
1494 4100
1494 4192
1494 4475
1494 4559
1494 5246
1494 5640
1494 6461
1494 6482
1494 6863
1494 6993
1494 7328
1494 8764
1494 8941
1494 9392
1494 9541
1494 9598
1494 9639
1494 9828
1495 2623
1495 2990
1495 3571
1495 4202
1495 4671
1495 4686
1495 5102
1495 6031
1495 6473
1495 6736
1495 7451
1495 9875
1496 1808
1496 2070
1496 2118
1496 2576
1496 2877
1496 3504
1496 3637
1496 3672
1496 4486
1496 4595
1496 6139
1496 7594
1496 7904
1496 8649
1496 8741
1496 8776
1496 9582
1497 3378
1497 3421
1497 4117
1497 5097
1497 5632
1497 5678
1497 7220
1497 8497
1498 1677
1498 1893
1498 2438
1498 2575
1498 2635
1498 2853
1498 3260
1498 3444
1498 3588
1498 4221
1498 4827
1498 4853
1498 5461
1498 5601
1498 5971
1498 6309
1498 7151
1498 7419
1498 7639
1498 7860
1499 1708
1499 1815
1499 2541
1499 3068
1499 3151
1499 3787
1499 5302
1499 5460
1499 5817
1499 6060
1499 7570
1499 8480
1499 8660
1499 8663
1499 9277
1499 9813
1500 1548
1500 1661
1500 1730
1500 1863
1500 1903
1500 2196
1500 2475
1500 3331
1500 3724
1500 5275
1500 5605
1500 6262
1500 6939
1500 7030
1500 7561
1500 7711
1500 7823
1500 8211
1500 8683
1501 1797
1501 3603
1501 3783
1501 7113
1501 7416
1502 2815
1502 2926
1502 5985
1502 7428
1503 2689
1503 3951
1503 4341
1503 4348
1503 5039
1503 5202
1503 5219
1503 5424
1503 5787
1503 6072
1503 6386
1503 7157
1503 7919
1503 8093
1504 1545
1504 2012
1504 2384
1504 2420
1504 2614
1504 3134
1504 3647
1504 3745
1504 4061
1504 4088
1504 4206
1504 4585
1504 4824
1504 5113
1504 5195
1504 5430
1504 5587
1504 5896
1504 6081
1504 6273
1504 6304
1504 6323
1504 6400
1504 6851
1504 7721
1504 8139
1504 9714
1505 1519
1505 1582
1505 1637
1505 1903
1505 2213
1505 2290
1505 3088
1505 3886
1505 4719
1505 4862
1505 4934
1505 5358
1505 5917
1505 6329
1505 8319
1505 9382
1505 9546
1505 9585
1506 2049
1506 2626
1506 5088
1506 5421
1506 5569
1506 5641
1506 5745
1506 7721
1506 9377
1506 9765
1507 2226
1507 2815
1507 4650
1507 4680
1507 5471
1507 5772
1507 6105
1507 7131
1507 7138
1508 1669
1508 2472
1508 3555
1508 3623
1508 4499
1508 4647
1508 4980
1508 5215
1508 5583
1508 7493
1508 8341
1508 8351
1508 8432
1509 2855
1509 3165
1509 3725
1509 4379
1509 4734
1509 4970
1509 5128
1509 7137
1509 7430
1509 9002
1509 9293
1509 9735
1509 9792
1509 9908
1509 9927
1510 3114
1510 3127
1510 3269
1510 3731
1510 3980
1510 7561
1510 7688
1510 8160
1511 2493
1511 2646
1511 3389
1511 3634
1511 4081
1511 5434
1511 7245
1511 7523
1511 8127
1511 9856
1512 2865
1512 3262
1512 3466
1512 4675
1512 6927
1512 7228
1512 7283
1512 7427
1512 7642
1512 8799
1512 9211
1513 2654
1513 2736
1513 3589
1513 3981
1513 4021
1513 5796
1513 6998
1513 7186
1513 9635
1514 3045
1514 3840
1514 4119
1514 4219
1514 4569
1514 4602
1514 5789
1514 9181
1515 1847
1515 2525
1515 2971
1515 3615
1515 3844
1515 4698
1515 6558
1515 6607
1515 6893
1515 7722
1515 9216
1515 9959
1516 2627
1516 2760
1516 2800
1516 2836
1516 2929
1516 3039
1516 3257
1516 4057
1516 4279
1516 4606
1516 5066
1516 5861
1517 1574
1517 2944
1517 2972
1517 3051
1517 3183
1517 3454
1517 3841
1517 4318
1517 4804
1517 6904
1517 7124
1517 7575
1517 7590
1517 8104
1517 8305
1517 9839
1518 2316
1518 2379
1518 6014
1518 6082
1518 6449
1518 7528
1518 8358
1518 8904
1518 9839
1519 1571
1519 1683
1519 1752
1519 1864
1519 2060
1519 2149
1519 2210
1519 2708
1519 3513
1519 4067
1519 4192
1519 4314
1519 4785
1519 5061
1519 5188
1519 6074
1519 6678
1519 8232
1519 9118
1519 9217
1520 2238
1520 2478
1520 2557
1520 2770
1520 3005
1520 3452
1520 3893
1520 3979
1520 4273
1520 4603
1520 4875
1520 5260
1520 6275
1520 7198
1520 7213
1520 7432
1520 8561
1520 9408
1520 9699
1521 1894
1521 2055
1521 2221
1521 2598
1521 2793
1521 3347
1521 3396
1521 3589
1521 4210
1521 4442
1521 4890
1521 5644
1521 5849
1521 5904
1521 6550
1521 7150
1521 7492
1521 7675
1521 7786
1521 7787
1521 7813
1521 7932
1521 9878
1522 1761
1522 1994
1522 2175
1522 2454
1522 3594
1522 3901
1522 8621
1523 1564
1523 1724
1523 1984
1523 2132
1523 2294
1523 2740
1523 3059
1523 3172
1523 3738
1523 4260
1523 4305
1523 5023
1523 5422
1523 5577
1523 5973
1523 7895
1524 1564
1524 1892
1524 3112
1524 3995
1524 4104
1524 4373
1524 4382
1524 5102
1524 6418
1524 6675
1524 7343
1524 7510
1524 9496
1524 9962
1525 1860
1525 2427
1525 2707
1525 4998
1525 5176
1525 7273
1525 7349
1525 7480
1525 7727
1525 9129
1525 9236
1525 9610
1526 2343
1526 3302
1526 3568
1526 3709
1526 3938
1526 4389
1526 4627
1526 5331
1526 6011
1526 6297
1526 6496
1526 6722
1526 6748
1526 7359
1526 8066
1526 9219
1526 9834
1526 9905
1527 1817
1527 1920
1527 2039
1527 2088
1527 2144
1527 2347
1527 2588
1527 3490
1527 4089
1527 4816
1527 5606
1527 5800
1527 6619
1527 7262
1527 7475
1527 7582
1527 7735
1527 8015
1527 8127
1527 8259
1527 8526
1527 8649
1527 9042
1528 1733
1528 1898
1528 1904
1528 1919
1528 2131
1528 2946
1528 3451
1528 3942
1528 4986
1528 5547
1528 6513
1528 6548
1528 6580
1528 7140
1528 7926
1528 7984
1528 8145
1528 8530
1528 8535
1528 8739
1528 9462
1528 9532
1529 1543
1529 1615
1529 1791
1529 2250
1529 2299
1529 2676
1529 2709
1529 2929
1529 3594
1529 3600
1529 3634
1529 3741
1529 4500
1529 5174
1529 5798
1529 6202
1529 6358
1529 6508
1529 7105
1529 8239
1529 8492
1529 9859
1530 3031
1530 3859
1530 3865
1530 4330
1530 4439
1530 4927
1530 5051
1530 5786
1530 7621
1530 8205
1531 1661
1531 1762
1531 1883
1531 2389
1531 3237
1531 4014
1531 4107
1531 4578
1531 4737
1531 7874
1532 2552
1532 2644
1532 3013
1532 3245
1532 3322
1532 3724
1532 4558
1532 5181
1532 6923
1532 7508
1532 8706
1532 9182
1532 9722
1532 9737
1532 5165
1533 1553
1533 1761
1533 1777
1533 3378
1533 4571
1533 5156
1533 5495
1533 6159
1533 6226
1533 6598
1533 7055
1533 7341
1533 7450
1533 7923
1534 1696
1534 1913
1534 2753
1534 3386
1534 3474
1534 3490
1534 4549
1534 4988
1534 5178
1534 5359
1534 5465
1534 5601
1534 7157
1534 8802
1534 8865
1534 8983
1534 9570
1535 1989
1535 2103
1535 2143
1535 2588
1535 2608
1535 3352
1535 3885
1535 4503
1535 4617
1535 4866
1535 5453
1535 7022
1535 7493
1535 7650
1535 8013
1535 8078
1535 9939
1535 9953
1536 2391
1536 2716
1536 2846
1536 4399
1536 5185
1536 5566
1536 5847
1536 7609
1536 8486
1536 8565
1536 8766
1536 9321
1536 9591
1537 7941
1537 8299
1537 8727
1537 9142
1537 9418
1538 1678
1538 1804
1538 2110
1538 2281
1538 2301
1538 2492
1538 3095
1538 3127
1538 3215
1538 3361
1538 3437
1538 3552
1538 3568
1538 3724
1538 3816
1538 3842
1538 4226
1538 4774
1538 5301
1538 6140
1538 6268
1538 6349
1538 7279
1538 7922
1538 8515
1538 9583
1539 2328
1539 2983
1539 4496
1539 4539
1539 5397
1539 6624
1539 6655
1539 8321
1539 9672
1540 1618
1540 1950
1540 2033
1540 2178
1540 2202
1540 2481
1540 2657
1540 2897
1540 3235
1540 3903
1540 4632
1540 4633
1540 5643
1540 5733
1540 5793
1540 6094
1540 6365
1540 7482
1540 7493
1540 7559
1540 7984
1540 8140
1540 8236
1540 8720
1540 9120
1540 9278
1541 1803
1541 2944
1541 2983
1541 3064
1541 3438
1541 3451
1541 3716
1541 5693
1541 6516
1541 7384
1541 7538
1541 8753
1541 9330
1542 1547
1542 1862
1542 1947
1542 2035
1542 3332
1542 3558
1542 4436
1542 4544
1542 5310
1542 5667
1542 6109
1542 7165
1542 7375
1542 7585
1542 7770
1542 8248
1542 8331
1542 9388
1542 9690
1543 1673
1543 2344
1543 2550
1543 3387
1543 5203
1543 6790
1543 7027
1543 9142
1543 9397
1543 9635
1544 1879
1544 2254
1544 2318
1544 2922
1544 3836
1544 5196
1544 5699
1544 6286
1544 7143
1544 7344
1545 2966
1545 3037
1545 3048
1545 3283
1545 4847
1545 5495
1545 6186
1545 6369
1545 7121
1545 8983
1545 9426
1545 9747
1546 1722
1546 1880
1546 2815
1546 3345
1546 3626
1546 4819
1546 4906
1546 6437
1546 7898
1546 7925
1546 8492
1546 9125
1546 9471
1546 9599
1546 9831
1547 1755
1547 1815
1547 1834
1547 1928
1547 4238
1547 4573
1547 4587
1547 5223
1547 6832
1547 9854
1548 1741
1548 2355
1548 3130
1548 3241
1548 3346
1548 4300
1548 5523
1548 6082
1548 7261
1548 8298
1548 8846
1548 9276
1548 9342
1548 9814
1549 1833
1549 1986
1549 2579
1549 2800
1549 3023
1549 5248
1549 5386
1549 5467
1549 5705
1549 6250
1549 8258
1550 1735
1550 1859
1550 2388
1550 3017
1550 4015
1550 4247
1550 4880
1550 6042
1550 7784
1550 8195
1550 8330
1550 9220
1550 9841
1551 1659
1551 2299
1551 2906
1551 4306
1551 4341
1551 4540
1551 5850
1551 6230
1551 6927
1551 8880
1551 9473
1551 9962
1552 1625
1552 3752
1552 3930
1552 4004
1552 4201
1552 4254
1552 6872
1552 7057
1552 7302
1552 7985
1552 8395
1552 8548
1553 1677
1553 2465
1553 3039
1553 3230
1553 4340
1553 4959
1553 5736
1553 5810
1553 6394
1553 6400
1553 6522
1553 6532
1553 6652
1553 7743
1553 8916
1553 9112
1553 9238
1553 9529
1554 1655
1554 1816
1554 1948
1554 2407
1554 2847
1554 4567
1554 5030
1554 5075
1554 7443
1554 8862
1554 9432
1554 9575
1554 7645
1555 2088
1555 2680
1555 3227
1555 6631
1555 7910
1555 8515
1556 2505
1556 3406
1556 5283
1556 9260
1557 1586
1557 1764
1557 1996
1557 2516
1557 2568
1557 3021
1557 3349
1557 3354
1557 4180
1557 4418
1557 5239
1557 5449
1557 5729
1557 6976
1557 7120
1557 7833
1557 7891
1557 8295
1557 9808
1558 1893
1558 2403
1558 2485
1558 2600
1558 3413
1558 3567
1558 3603
1558 3800
1558 5797
1558 6035
1558 7214
1558 7902
1558 9143
1559 2016
1559 2073
1559 2987
1559 4045
1559 5098
1559 5589
1559 5906
1559 6018
1559 7053
1559 7831
1559 8025
1559 8608
1559 9317
1559 9589
1559 9629
1560 1897
1560 1940
1560 2155
1560 2657
1560 2989
1560 5134
1560 5398
1560 7719
1560 7978
1560 8004
1560 8497
1560 9043
1561 1769
1561 1813
1561 2368
1561 3154
1561 4147
1561 4230
1561 4990
1561 6901
1561 7556
1561 7720
1561 8192
1561 8701
1561 9096
1562 2894
1562 3690
1562 5823
1562 6462
1562 6691
1562 6946
1562 8863
1562 8890
1562 8901
1562 9487
1563 2031
1563 2209
1563 2256
1563 2446
1563 2532
1563 3366
1563 3388
1563 4473
1564 1701
1564 1904
1564 2181
1564 2415
1564 2528
1564 2606
1564 2805
1564 3584
1564 3792
1564 4316
1564 4565
1564 6931
1564 7042
1564 7362
1564 8415
1564 9342
1565 1827
1565 2205
1565 2674
1565 3165
1565 3272
1565 3508
1565 3717
1565 4179
1565 4315
1565 4536
1565 4715
1565 5036
1565 7070
1565 7075
1565 7107
1565 7117
1565 7466
1565 9332
1566 1740
1566 2170
1566 2211
1566 2379
1566 2713
1566 3359
1566 3391
1566 3407
1566 3758
1566 4081
1566 4150
1566 4845
1566 6083
1566 6423
1566 7087
1566 7842
1566 7856
1566 8204
1566 8486
1566 9477
1566 3505
1567 2820
1567 2826
1567 3817
1567 4310
1567 4694
1567 5912
1567 6389
1567 6431
1567 6618
1567 7771
1567 9133
1568 1609
1568 1661
1568 1695
1568 3028
1568 4349
1568 4705
1568 5271
1568 5989
1568 6165
1568 9281
1568 9671
1568 9944
1569 1597
1569 1625
1569 1754
1569 1953
1569 2851
1569 2931
1569 3503
1569 3991
1569 5901
1569 6863
1569 8203
1569 8574
1569 9483
1569 9727
1570 1661
1570 1842
1570 2427
1570 2698
1570 3188
1570 3454
1570 4225
1570 5139
1570 5234
1570 5648
1570 6348
1570 6452
1570 9531
1571 1673
1571 1697
1571 1851
1571 2800
1571 2837
1571 3114
1571 3561
1571 3637
1571 4895
1571 5686
1571 6325
1571 9736
1572 1742
1572 1927
1572 2009
1572 2478
1572 2725
1572 2813
1572 3464
1572 4340
1572 4533
1572 4826
1572 5158
1572 5605
1572 5851
1572 6865
1572 9176
1573 2373
1573 2789
1573 4115
1573 4320
1573 4380
1573 4588
1573 4784
1573 4831
1573 5108
1573 5995
1573 6143
1573 6359
1573 6405
1573 7545
1573 7780
1573 8029
1573 8434
1573 8527
1573 8873
1573 8972
1573 9438
1573 9782
1574 2242
1574 2281
1574 2880
1574 3435
1574 3744
1574 4248
1574 4606
1574 5114
1574 6161
1574 7441
1574 7449
1574 7922
1574 9251
1574 9432
1575 1662
1575 1824
1575 2180
1575 2779
1575 7256
1575 7590
1575 8161
1575 8217
1575 8316
1575 8987
1576 2984
1576 3601
1576 4452
1576 4753
1576 5657
1576 6004
1576 7217
1576 9379
1576 9539
1577 1812
1577 2024
1577 2192
1577 2360
1577 2422
1577 2532
1577 2700
1577 2904
1577 3077
1577 3366
1577 3908
1577 4211
1577 4448
1577 4529
1577 5744
1577 6047
1577 6201
1577 6910
1577 8268
1578 1722
1578 1784
1578 1827
1578 1915
1578 2198
1578 2300
1578 2364
1578 2401
1578 3525
1578 3694
1578 3953
1578 4753
1578 5165
1578 5437
1578 5739
1578 6103
1578 6345
1578 6463
1578 8234
1578 8355
1578 8675
1578 8830
1578 9178
1578 9643
1579 2282
1579 2970
1579 3062
1579 3479
1579 4659
1579 4764
1579 5377
1579 7167
1579 9489
1579 9530
1580 1831
1580 1964
1580 2121
1580 2215
1580 2473
1580 3961
1580 4311
1580 4785
1580 5757
1580 6969
1580 7930
1580 9095
1580 9931
1581 1797
1581 2301
1581 2536
1581 4093
1581 4585
1581 4842
1581 5108
1581 5358
1581 5994
1581 6011
1581 6246
1581 6623
1581 7304
1581 7500
1581 7768
1581 8590
1581 9021
1581 9796
1582 1637
1582 2146
1582 2384
1582 2529
1582 2552
1582 2629
1582 3340
1582 3625
1582 3743
1582 3799
1582 3864
1582 3896
1582 3998
1582 4691
1582 4889
1582 5501
1582 6149
1582 6192
1582 6450
1582 6585
1582 7142
1582 7279
1582 7511
1582 7882
1582 8045
1582 8341
1582 8524
1582 8684
1582 8735
1583 2693
1583 2896
1583 2931
1583 3568
1583 4244
1583 4631
1583 7057
1583 8156
1584 2081
1584 3045
1584 3201
1584 4630
1584 5212
1584 5647
1584 9976
1585 1598
1585 1674
1585 1774
1585 2177
1585 2222
1585 3169
1585 3848
1585 4527
1585 4612
1585 4831
1585 5139
1585 6039
1585 6342
1585 6507
1585 6640
1585 7375
1585 8019
1585 8119
1585 8216
1585 8559
1585 9248
1585 9956
1586 1885
1586 1913
1586 2068
1586 2195
1586 2215
1586 2477
1586 2684
1586 2710
1586 2759
1586 3123
1586 3668
1586 3766
1586 3774
1586 4272
1586 4469
1586 5269
1586 7451
1586 9172
1586 9396
1587 2249
1587 3468
1587 3945
1587 4321
1587 5498
1587 6057
1587 7829
1587 8088
1587 8326
1587 9937
1588 2120
1588 4218
1588 5181
1588 8238
1588 9316
1588 9563
1588 9814
1589 1819
1589 2476
1589 2727
1589 2898
1589 3189
1589 3997
1589 4707
1589 4742
1589 5524
1589 7055
1589 7145
1589 7194
1589 7433
1589 7565
1589 7785
1589 9663
1590 2499
1590 3961
1590 4377
1590 5384
1590 5593
1590 7295
1590 7670
1590 8092
1591 1879
1591 2587
1591 3890
1591 4013
1591 4116
1591 4495
1591 4909
1591 5010
1591 5263
1591 6209
1591 6239
1591 7156
1591 7248
1591 7272
1591 7518
1591 8690
1591 8743
1591 8977
1591 9029
1591 9037
1591 9395
1592 2824
1592 2924
1592 3007
1592 3975
1592 4457
1592 4475
1592 5491
1592 5766
1592 6532
1592 6599
1592 6681
1592 6685
1592 6818
1592 6933
1592 6982
1592 6991
1592 7393
1592 7731
1592 8132
1592 8283
1592 8698
1592 8911
1592 9656
1593 1693
1593 1881
1593 2063
1593 2466
1593 2561
1593 2612
1593 2659
1593 2726
1593 2908
1593 2978
1593 3079
1593 3355
1593 3376
1593 4007
1593 5391
1593 6393
1593 7253
1593 7754
1593 8234
1593 9075
1593 9108
1593 9233
1594 2474
1594 3356
1594 4000
1594 4452
1594 5753
1594 7366
1594 7818
1594 8282
1594 9117
1595 2253
1595 2377
1595 2508
1595 3314
1595 3492
1595 3687
1595 3902
1595 4215
1595 4549
1595 5026
1595 6119
1595 7725
1595 8491
1595 8990
1595 9833
1596 2068
1596 2174
1596 2903
1596 5135
1596 6379
1596 6661
1596 7102
1596 7710
1596 8044
1596 8087
1596 9079
1596 9462
1597 2862
1597 2875
1597 2892
1597 3205
1597 3391
1597 3962
1597 4390
1597 4969
1597 5799
1597 6036
1597 7034
1597 7793
1597 7893
1597 9664
1598 3029
1598 3348
1598 3618
1598 3863
1598 4484
1598 5289
1598 5372
1598 5881
1598 8084
1598 8336
1598 8383
1598 8936
1598 9374
1598 9492
1598 8600
1599 2684
1599 2770
1599 3874
1599 4175
1599 5335
1599 5584
1599 5670
1599 5817
1599 7072
1600 1687
1600 1789
1600 2006
1600 2184
1600 2247
1600 2324
1600 2432
1600 3077
1600 3212
1600 3527
1600 3791
1600 3851
1600 3879
1600 4294
1600 4806
1600 5202
1600 5428
1600 6277
1600 7832
1600 9456
1600 9464
1601 1635
1601 2993
1601 3095
1601 6090
1601 6094
1601 7714
1601 9488
1602 2244
1602 3305
1602 3665
1602 3795
1602 3804
1602 3848
1602 4075
1602 4688
1602 6688
1603 3877
1603 4981
1603 8412
1604 1738
1604 2239
1604 2570
1604 2710
1604 2725
1604 3705
1604 4817
1604 5068
1604 5184
1604 5674
1604 8355
1604 9174
1605 3029
1605 3097
1605 3849
1605 4322
1605 5014
1605 5083
1605 5326
1605 6716
1605 7400
1605 7807
1605 9605
1605 9981
1606 1668
1606 1678
1606 1766
1606 1867
1606 2305
1606 2316
1606 2415
1606 2563
1606 3078
1606 3224
1606 3277
1606 3493
1606 3703
1606 4155
1606 4390
1606 4580
1606 5119
1606 5249
1606 5264
1606 5481
1606 5521
1606 6251
1606 8630
1606 8708
1606 9229
1606 9556
1607 2424
1607 2460
1607 2723
1607 3581
1607 3726
1607 3745
1607 5192
1607 6220
1607 6656
1607 7787
1607 8162
1607 9438
1607 9544
1607 9659
1607 9710
1608 1681
1608 3157
1608 6307
1608 6606
1608 7363
1608 7863
1609 1718
1609 1831
1609 2239
1609 3111
1609 4761
1609 4803
1609 5030
1609 5065
1609 5567
1609 5618
1609 5738
1609 5913
1609 5995
1609 7159
1609 7513
1609 7781
1609 8115
1609 8543
1609 8862
1609 8964
1610 1719
1610 1800
1610 3067
1610 3402
1610 4316
1610 4352
1610 5585
1610 6308
1610 6690
1610 7181
1610 7896
1610 9312
1610 9392
1610 9634
1610 1983
1611 1750
1611 2297
1611 2969
1611 3003
1611 3848
1611 4529
1611 4909
1611 5123
1611 7049
1611 8733
1611 9094
1611 9861
1612 1652
1612 1760
1612 1807
1612 2097
1612 2382
1612 2514
1612 3041
1612 3405
1612 3550
1612 3576
1612 3597
1612 3775
1612 8120
1612 8281
1612 8798
1612 8992
1612 9634
1612 9739
1613 3237
1613 3276
1613 4141
1613 4639
1613 4877
1613 4979
1613 5021
1613 5063
1613 5078
1613 6767
1613 7105
1613 8049
1613 8959
1613 9512
1614 1834
1614 3292
1614 4140
1614 4530
1614 4972
1614 4999
1614 5187
1614 5750
1614 5780
1614 6569
1614 9930
1615 2187
1615 2728
1615 2774
1615 3477
1615 3542
1615 3740
1615 3998
1615 4172
1615 4515
1615 4935
1615 4995
1615 6029
1615 6272
1615 6573
1615 7022
1615 8326
1615 8653
1615 8817
1615 8992
1615 8998
1615 9061
1615 9350
1615 9687
1615 9897
1616 1813
1616 1891
1616 2100
1616 2541
1616 2570
1616 2684
1616 5362
1616 5415
1616 7043
1616 7513
1616 8000
1616 8701
1616 8842
1617 2083
1617 2615
1617 2701
1617 2711
1617 3735
1617 3927
1617 4236
1617 4253
1617 4404
1617 6066
1617 6183
1617 6379
1617 8017
1617 8042
1617 8727
1618 1772
1618 1854
1618 2576
1618 2656
1618 2738
1618 3529
1618 4011
1618 5555
1618 5810
1618 8075
1618 8430
1618 8549
1618 8613
1618 8896
1618 8953
1618 9718
1618 9779
1619 1711
1619 2042
1619 2203
1619 3293
1619 3443
1619 3830
1619 5982
1619 6509
1619 6539
1619 7031
1619 7398
1619 8682
1619 8844
1619 9150
1620 1850
1620 2040
1620 3939
1620 4451
1620 4520
1620 4788
1620 5988
1620 7733
1620 8038
1620 9237
1620 9495
1620 9630
1620 9879
1621 1886
1621 2652
1621 2728
1621 2829
1621 2913
1621 3289
1621 3545
1621 3967
1621 6572
1621 6757
1621 7397
1621 9946
1622 1786
1622 2438
1622 3032
1622 3279
1622 3290
1622 4143
1622 4275
1622 4567
1622 4623
1622 4690
1622 4991
1622 5073
1622 5268
1622 5281
1622 5422
1622 5510
1622 5628
1622 5689
1622 5760
1622 5830
1622 6832
1622 7231
1622 7666
1622 7714
1622 8608
1622 9204
1622 9739
1623 1782
1623 2055
1623 2741
1623 3660
1623 4508
1623 4681
1623 4865
1623 5388
1623 6006
1623 6239
1623 6341
1623 7154
1623 7205
1623 7584
1623 7767
1623 7928
1623 9967
1624 1662
1624 2044
1624 2077
1624 2143
1624 2753
1624 2774
1624 2983
1624 3339
1624 3788
1624 3920
1624 5860
1624 5922
1624 6151
1624 6412
1624 6910
1624 7049
1624 7363
1624 7471
1624 8699
1624 9742
1625 1949
1625 2097
1625 2664
1625 4382
1625 4841
1625 4856
1625 5050
1625 6412
1625 6913
1625 9665
1626 1627
1626 1820
1626 2265
1626 2579
1626 2905
1626 2952
1626 4226
1626 4280
1626 4600
1626 4895
1626 5378
1626 5423
1626 6871
1626 6921
1626 6948
1626 7275
1626 8447
1626 8479
1626 8533
1626 9332
1627 3191
1627 4421
1627 6303
1627 7866
1627 8430
1627 8678
1627 8796
1628 2437
1628 2942
1628 7589
1628 9731
1629 1917
1629 1919
1629 2160
1629 2286
1629 2349
1629 2723
1629 3571
1629 3712
1629 4139
1629 4452
1629 5316
1629 6334
1629 8179
1630 2517
1630 2977
1630 4290
1630 4951
1630 5258
1630 5617
1630 7450
1630 8866
1631 1681
1631 1700
1631 1975
1631 2055
1631 2121
1631 2597
1631 2965
1631 3322
1631 3325
1631 3384
1631 3454
1631 4208
1631 4357
1631 4436
1631 4458
1631 5060
1631 5263
1631 5904
1631 6056
1631 6223
1631 7494
1631 8049
1631 8943
1631 9370
1632 1715
1632 1808
1632 2029
1632 2428
1632 2573
1632 2746
1632 3348
1632 3621
1632 3697
1632 3929
1632 4124
1632 4247
1632 4261
1632 4322
1632 4523
1632 5430
1632 5634
1632 5779
1632 6383
1632 6692
1632 7208
1632 7606
1632 7958
1632 5876
1633 2172
1633 2733
1633 3129
1633 3201
1633 3891
1633 4630
1633 5031
1633 5272
1633 5535
1633 6121
1633 6958
1633 8085
1633 8785
1633 9284
1633 9944
1634 2900
1634 3856
1634 7471
1634 7506
1634 8473
1634 9915
1635 1821
1635 2135
1635 2374
1635 2558
1635 2805
1635 2899
1635 3866
1635 4091
1635 4411
1635 4567
1635 5779
1635 6148
1635 7083
1635 7169
1635 7495
1635 9433
1635 9461
1635 9748
1636 1641
1636 1892
1636 2045
1636 2125
1636 2386
1636 2675
1636 2759
1636 3056
1636 3602
1636 4613
1636 4652
1636 5059
1636 5226
1636 5330
1636 5363
1636 5841
1636 6501
1636 6882
1636 7894
1636 7914
1636 8249
1636 8343
1637 1780
1637 6050
1638 1945
1638 2957
1638 3173
1638 3660
1638 3663
1638 3705
1638 4803
1638 5170
1638 5276
1638 5928
1638 5946
1638 5995
1638 7018
1638 7432
1638 7546
1638 8414
1638 8666
1638 9255
1638 9567
1639 1765
1639 1798
1639 1996
1639 5754
1639 6466
1639 6697
1639 6829
1639 6969
1639 6999
1639 7996
1639 8360
1639 8618
1639 8970
1640 1707
1640 1712
1640 1898
1640 1932
1640 1965
1640 1968
1640 2100
1640 3004
1640 3244
1640 4478
1640 4944
1640 5090
1640 5338
1640 5352
1640 5867
1640 6458
1640 6582
1640 6591
1640 6675
1640 6942
1640 7018
1640 8693
1640 9139
1640 9416
1640 9493
1640 9755
1641 1721
1641 2307
1641 2446
1641 2491
1641 3592
1641 3719
1641 3771
1641 3916
1641 6098
1641 6281
1641 6490
1641 6527
1641 6687
1641 6763
1641 7777
1642 1705
1642 1922
1642 2076
1642 3033
1642 3089
1642 3623
1642 3642
1642 4425
1642 5855
1642 6520
1642 8237
1643 3088
1643 3807
1643 3995
1643 4188
1643 5115
1643 5169
1643 5950
1643 6785
1643 6865
1643 7566
1643 8486
1643 8643
1643 9205
1643 9262
1644 1882
1644 2512
1644 3258
1644 3286
1644 3505
1644 3656
1644 3667
1644 4127
1644 4307
1644 6180
1644 6828
1644 7373
1644 7573
1644 8021
1644 8414
1645 1765
1645 2652
1645 3015
1645 4200
1645 4481
1645 4568
1645 5242
1645 6042
1645 6816
1645 6826
1645 7338
1645 8018
1645 8156
1645 8208
1645 8621
1646 2327
1646 2457
1646 4867
1646 4953
1646 5884
1646 6630
1646 7693
1646 8914
1646 9880
1647 1686
1647 1866
1647 2109
1647 2724
1647 5677
1647 6664
1647 7920
1647 9454
1647 9701
1647 9723
1648 2708
1648 3171
1648 3274
1648 3451
1648 3510
1648 4102
1648 4199
1648 4659
1648 5104
1648 5648
1648 5953
1648 6363
1648 7494
1648 7992
1648 8437
1648 9840
1649 1912
1649 2014
1649 2666
1649 3384
1649 3589
1649 4632
1649 4702
1649 4855
1649 5177
1649 6138
1649 6513
1649 7208
1649 7278
1649 7661
1649 9369
1650 1994
1650 3049
1650 4459
1650 4899
1650 5478
1650 5647
1650 6380
1650 6704
1650 6731
1650 8686
1650 9672
1651 1902
1651 1988
1651 2282
1651 2315
1651 2806
1651 2908
1651 3734
1651 3903
1651 4086
1651 4214
1651 4325
1651 4549
1651 6152
1651 6286
1651 7165
1651 7410
1651 7989
1651 8018
1651 9377
1652 1806
1652 4273
1652 4437
1652 4928
1652 5866
1652 6056
1652 6969
1652 7473
1652 8246
1652 8255
1653 2473
1653 4811
1653 6279
1653 9000
1653 9600
1653 9934
1654 2847
1654 3197
1654 3982
1654 4487
1654 4588
1654 4684
1654 4747
1654 4784
1654 4822
1654 4981
1654 5372
1654 6858
1655 2442
1655 2556
1655 2890
1655 3139
1655 3190
1655 3493
1655 3635
1655 4014
1655 4101
1655 5315
1655 5464
1655 5467
1655 5529
1655 6215
1655 6543
1655 6601
1655 7333
1655 7404
1655 7879
1656 2166
1656 2459
1656 3052
1656 4198
1656 4706
1656 4884
1656 5076
1656 5218
1656 6123
1656 7656
1656 9206
1657 2330
1657 2547
1657 3006
1657 4487
1657 4517
1657 4646
1657 4793
1657 5808
1657 6096
1657 8313
1658 1866
1658 2247
1658 2298
1658 2376
1658 2482
1658 2923
1658 3130
1658 3625
1658 4129
1658 4453
1658 4564
1658 5308
1658 5806
1658 6623
1658 7309
1658 7331
1658 7888
1658 9324
1658 9632
1658 9792
1658 9959
1659 2103
1659 2200
1659 2695
1659 2777
1659 2986
1659 4067
1659 4444
1659 6276
1659 7645
1659 8506
1660 1954
1660 2830
1660 3945
1660 5206
1660 5999
1660 6269
1660 6615
1660 6873
1660 7766
1660 8996
1661 1775
1661 1971
1661 2492
1661 2548
1661 2901
1661 3005
1661 3425
1661 3856
1661 3985
1661 4154
1661 4614
1661 5303
1661 5324
1661 5388
1661 6003
1661 6215
1661 6274
1661 6908
1661 7020
1661 7084
1661 7387
1661 7388
1661 7755
1661 8114
1661 8415
1661 8859
1661 9019
1661 9580
1662 2412
1662 4389
1662 7091
1662 8382
1663 1670
1663 2158
1663 3066
1663 3600
1663 3611
1663 3720
1663 3737
1663 3865
1663 4089
1663 5490
1663 5705
1663 5876
1663 5897
1663 6041
1663 6314
1664 1902
1664 4973
1664 5044
1664 5606
1664 7938
1664 9737
1664 9813
1665 2672
1665 3792
1665 5158
1665 5813
1665 7669
1665 7848
1665 7852
1665 8054
1665 8134
1666 1725
1666 2356
1666 2474
1666 2574
1666 2701
1666 2745
1666 2923
1666 3029
1666 3061
1666 3182
1666 3648
1666 4323
1666 4564
1666 4777
1666 5414
1666 6243
1666 6493
1666 7231
1666 7467
1666 7590
1666 7651
1666 8015
1666 8398
1666 8910
1666 8966
1666 9907
1666 9936
1667 1875
1667 1883
1667 2000
1667 2103
1667 2380
1667 2476
1667 3685
1667 4402
1667 4456
1667 5704
1667 6885
1667 6945
1667 7988
1667 8022
1667 9434
1668 2984
1668 3309
1668 4279
1668 4295
1668 4373
1668 4716
1668 4792
1668 4918
1668 5142
1668 5230
1668 5471
1668 6516
1668 6696
1668 6863
1668 7574
1668 8206
1668 8594
1668 8843
1668 9450
1669 2076
1669 2276
1669 3015
1669 4378
1669 4900
1669 5344
1669 6339
1669 6993
1669 7036
1669 9369
1670 2154
1670 3492
1670 3762
1670 6362
1670 8373
1670 9068
1671 1823
1671 1974
1671 2432
1671 2827
1671 3258
1671 4133
1671 4255
1671 7318
1671 7874
1671 9882
1672 1695
1672 2010
1672 2051
1672 2126
1672 2250
1672 2443
1672 2673
1672 3473
1672 3479
1672 3596
1673 9109
1674 2332
1674 2477
1674 2564
1674 2827
1674 3377
1674 3539
1674 3712
1674 3917
1674 5274
1674 5355
1674 6338
1674 8649
1674 9774
1675 1714
1675 1965
1675 2132
1675 2361
1675 2864
1675 2991
1675 3746
1675 4250
1675 4378
1675 5120
1675 5610
1675 5788
1675 6728
1675 7102
1675 7413
1675 8693
1675 8906
1675 9585
1676 2368
1676 2764
1676 3400
1676 3469
1676 3722
1676 4138
1676 4594
1676 4890
1676 5048
1676 5264
1676 6792
1676 6850
1676 7169
1676 7769
1676 8087
1676 8141
1676 8348
1677 2023
1677 2079
1677 2836
1677 2910
1677 3562
1677 4536
1677 8730
1677 9769
1678 2600
1678 2823
1678 3223
1678 4559
1678 4788
1678 5226
1678 5615
1678 5759
1678 7229
1678 7472
1678 7614
1678 7907
1679 1831
1679 1873
1679 4520
1679 4617
1679 4813
1679 5303
1679 5605
1679 6077
1679 7002
1679 7081
1679 7276
1679 8404
1679 8413
1679 9144
1680 1828
1680 2618
1680 3060
1680 3243
1680 4007
1680 4435
1680 4569
1680 4821
1680 5508
1680 5514
1680 6145
1680 6176
1680 6200
1680 7940
1680 9677
1681 1785
1681 1826
1681 2077
1681 3134
1681 3947
1681 4040
1681 4152
1681 4268
1681 4578
1681 4701
1681 4982
1681 5223
1681 5665
1681 5943
1681 6723
1681 9315
1681 9524
1682 2238
1682 2289
1682 2526
1682 3109
1682 3240
1682 3456
1682 4824
1682 5366
1682 6306
1682 6588
1682 6614
1682 6855
1682 6863
1682 7019
1682 7290
1682 8074
1682 8580
1682 9664
1683 1913
1683 3066
1683 3855
1683 4198
1683 4576
1683 5444
1683 5809
1683 6448
1683 6761
1683 7035
1683 7047
1683 7327
1683 7503
1683 7625
1683 8354
1683 9371
1683 9621
1684 1791
1684 1841
1684 2171
1684 2464
1684 2552
1684 3072
1684 3197
1684 3321
1684 3588
1684 4919
1684 6239
1684 6354
1684 7251
1684 8285
1684 8425
1684 9147
1685 1834
1685 2108
1685 2186
1685 2356
1685 2456
1685 3070
1685 3368
1685 3974
1685 4721
1685 4937
1685 4941
1685 5381
1685 5594
1685 6295
1685 6347
1685 6693
1685 7380
1685 7638
1685 8674
1685 9092
1685 9552
1685 9650
1686 1780
1686 1976
1686 2163
1686 2538
1686 2642
1686 3061
1686 3167
1686 3527
1686 4083
1686 5054
1686 8083
1686 8172
1686 8924
1686 9520
1686 9695
1686 9806
1687 2580
1687 2682
1687 3152
1687 3224
1687 3256
1687 4047
1687 4308
1687 4693
1687 4927
1687 5441
1687 6303
1687 7170
1687 7547
1687 7762
1687 7914
1687 7959
1687 8467
1687 8681
1687 8858
1687 9193
1688 2067
1688 3021
1688 3085
1688 3260
1688 3825
1688 4136
1688 4476
1688 5886
1688 6064
1688 6639
1688 6672
1688 6984
1688 7229
1688 7547
1688 7861
1688 8381
1688 8740
1688 8911
1688 9334
1688 9404
1688 9785
1689 1749
1689 1871
1689 2505
1689 2582
1689 2845
1689 3022
1689 3025
1689 4140
1689 4500
1689 4717
1689 5841
1689 6275
1689 6432
1689 6516
1689 7209
1689 7406
1689 7602
1689 7899
1689 7946
1689 8387
1689 8592
1690 1987
1690 2151
1690 2528
1690 3349
1690 5768
1690 5979
1690 5989
1690 6244
1690 6548
1690 7076
1690 8875
1690 9153
1690 9732
1691 1861
1691 2035
1691 2322
1691 2852
1691 4264
1691 4544
1691 5399
1691 5888
1691 9085
1692 1835
1692 2434
1692 3040
1692 4930
1692 7045
1692 7440
1692 8752
1692 8792
1692 9056
1693 2024
1693 2302
1693 2949
1693 3129
1693 3644
1693 4072
1693 4451
1693 4786
1693 4965
1693 5047
1693 5069
1693 6088
1693 6648
1693 7098
1693 7446
1693 7630
1693 7698
1693 8767
1693 9477
1693 9994
1694 2128
1694 2209
1694 3058
1694 3279
1694 3824
1694 5604
1694 6128
1694 6189
1695 2214
1695 3747
1695 4187
1695 4311
1695 4476
1695 5415
1695 5826
1695 6397
1695 6930
1695 7160
1695 7571
1695 9953
1696 2208
1696 2219
1696 2322
1696 2495
1696 2880
1696 2982
1696 3243
1696 3302
1696 3454
1696 4445
1696 4513
1696 4599
1696 4671
1696 4845
1696 5205
1696 5377
1696 5496
1696 6443
1696 6720
1696 6764
1696 7606
1696 7893
1696 8176
1696 8367
1696 8734
1696 9106
1696 9573
1697 2630
1697 2830
1697 3386
1697 3749
1697 4122
1697 4804
1697 5202
1697 7310
1697 7638
1697 8163
1697 8524
1697 9165
1697 9753
1697 9924
1697 9934
1698 2043
1698 2084
1698 2147
1698 2893
1698 3010
1698 3661
1698 4066
1698 4184
1698 4233
1699 1981
1699 2809
1699 2903
1699 3294
1699 3610
1699 3979
1699 4361
1699 4646
1699 5269
1699 5295
1699 5547
1699 6469
1699 7198
1699 7986
1699 9575
1699 9852
1700 3860
1700 4093
1700 6475
1700 9106
1701 2130
1701 2195
1701 2789
1701 2856
1701 2976
1701 2989
1701 3046
1701 3474
1701 3747
1701 4058
1701 4734
1701 5227
1701 6335
1701 7183
1701 7684
1701 8424
1701 9994
1702 2887
1702 3078
1702 3713
1702 4874
1702 5346
1702 5961
1702 6407
1702 7076
1702 8221
1702 8287
1702 9425
1703 2130
1703 2667
1703 2938
1703 3139
1703 3849
1703 5377
1703 6186
1703 7237
1703 8950
1703 9074
1703 9961
1704 1855
1704 2597
1704 3459
1704 3616
1704 3650
1704 4440
1704 4828
1704 4955
1704 5408
1704 7121
1704 7140
1704 7436
1704 8207
1704 8301
1704 8656
1704 9097
1704 9334
1705 1736
1705 2819
1705 3393
1705 4350
1705 4733
1705 6195
1705 6830
1705 7123
1705 7720
1706 2872
1706 3601
1706 3836
1706 4009
1706 4204
1706 5382
1706 7238
1706 7476
1706 8438
1706 8479
1706 9431
1706 9662
1706 9901
1707 1727
1707 2350
1707 5532
1707 9931
1708 4275
1708 4740
1709 1767
1709 1787
1709 1988
1709 2089
1709 3750
1709 4666
1709 6145
1709 7054
1709 7732
1709 9262
1710 2493
1710 2622
1710 3382
1710 3411
1710 3702
1710 5124
1710 5295
1710 6130
1710 6197
1710 6572
1710 7101
1710 7361
1710 7428
1710 8291
1710 9750
1710 9850
1711 2003
1711 2943
1711 3143
1711 3293
1711 3776
1711 5003
1711 5161
1711 5400
1711 5430
1711 5808
1711 6462
1711 7455
1711 7892
1711 7974
1711 8629
1711 8737
1711 9350
1711 9793
1712 1806
1712 1865
1712 2002
1712 2087
1712 3547
1712 3656
1712 3806
1712 5032
1712 5396
1712 5705
1712 5882
1712 7395
1712 8106
1712 8387
1712 8904
1713 2017
1713 2541
1713 3042
1713 4384
1713 4746
1713 4967
1713 6189
1713 6830
1713 6857
1713 8043
1713 8104
1714 1961
1714 2004
1714 2018
1714 2418
1714 2825
1714 2892
1714 3231
1714 3933
1714 5074
1714 5167
1714 5465
1714 5721
1714 5847
1714 6163
1714 7154
1714 7161
1714 7975
1714 9057
1714 9152
1715 1858
1715 1919
1715 3037
1715 3216
1715 4508
1715 4940
1715 5199
1715 5774
1715 6895
1715 7183
1715 7681
1715 7917
1715 8238
1715 8347
1715 8987
1715 9348
1715 9505
1715 9769
1715 9811
1716 4267
1716 5740
1716 5783
1716 6175
1716 6269
1716 6336
1716 9632
1717 1873
1717 2527
1717 2566
1717 2624
1717 2732
1717 2781
1717 3194
1717 3724
1717 4622
1717 4943
1717 4968
1717 5300
1717 5808
1717 5868
1717 5880
1717 6090
1717 6206
1717 6344
1717 7173
1717 7667
1717 8070
1717 8136
1717 9017
1718 2068
1718 2217
1718 3462
1718 3464
1718 3997
1718 4216
1718 6131
1718 6180
1718 9361
1719 1982
1719 2028
1719 2081
1719 3256
1719 3462
1719 3826
1719 5158
1719 8011
1719 8509
1720 1915
1720 1943
1720 2221
1720 2538
1720 2874
1720 3303
1720 3581
1720 3847
1720 4016
1720 5285
1720 5434
1720 5562
1720 5611
1720 6141
1720 6962
1720 6963
1720 7022
1720 7300
1720 8673
1720 8701
1720 9158
1720 9333
1721 2400
1721 2646
1721 3542
1721 5155
1721 5949
1721 6268
1721 6449
1721 6722
1721 7468
1721 8089
1721 8099
1721 8206
1721 8402
1721 9056
1721 9762
1721 9885
1722 2481
1722 2579
1722 2693
1722 2994
1722 3016
1722 3041
1722 3066
1722 4613
1722 6530
1722 6658
1722 7348
1722 7912
1722 7914
1722 8411
1723 1930
1723 3065
1723 5052
1723 5623
1723 7562
1723 8235
1723 8704
1724 2546
1724 2719
1724 2800
1724 2882
1724 3337
1724 3365
1724 3547
1724 3738
1724 4059
1724 4250
1724 4803
1724 5974
1724 6070
1724 7075
1724 8097
1724 8115
1724 8876
1724 9481
1725 2060
1725 3707
1725 3743
1725 3888
1725 4156
1725 4324
1725 4575
1725 4953
1725 5426
1725 6456
1725 7296
1725 7732
1726 1850
1726 1996
1726 2032
1726 2549
1726 2678
1726 3111
1726 3113
1726 3419
1726 3840
1726 3863
1726 3907
1726 4097
1726 4358
1726 4510
1726 4973
1726 5087
1726 5098
1726 5479
1726 5666
1726 6246
1726 6607
1726 6625
1726 7165
1726 7387
1726 7602
1726 7982
1726 8738
1726 9377
1726 9406
1726 9714
1727 1939
1727 3142
1727 3237
1727 3901
1727 4247
1727 6630
1727 7104
1727 7430
1727 7550
1727 7628
1727 7660
1727 9151
1727 9223
1728 1826
1728 1994
1728 2007
1728 2071
1728 2102
1728 2393
1728 3134
1728 3317
1728 3793
1728 3857
1728 4043
1728 4286
1728 4619
1728 4660
1728 4919
1728 5833
1728 6470
1728 6539
1728 6544
1728 7626
1728 7694
1728 7795
1728 7900
1728 8187
1728 8411
1728 9200
1728 9470
1729 2082
1729 2115
1729 2305
1729 2721
1729 3057
1729 3077
1729 3556
1729 3698
1729 3740
1729 4193
1729 4835
1729 4956
1729 4980
1729 5886
1729 6529
1729 6628
1729 7282
1729 9341
1729 9534
1730 1821
1730 1966
1730 2012
1730 2882
1730 3061
1730 3593
1730 4384
1730 4828
1730 5441
1730 5858
1730 5917
1730 7251
1730 7497
1730 8110
1730 8364
1730 8623
1730 9774
1731 3267
1731 5469
1731 6307
1731 7310
1731 7627
1731 8115
1731 8875
1732 2795
1732 2850
1732 3216
1732 3239
1732 3812
1732 4453
1732 5257
1732 5337
1732 5715
1732 5942
1732 6300
1732 7354
1732 8416
1732 8503
1732 8679
1732 9753
1733 1891
1733 3127
1733 3230
1733 3385
1733 5197
1733 5551
1733 5691
1733 5865
1733 6347
1733 7586
1733 9121
1734 3006
1734 5259
1734 7243
1734 8879
1734 9014
1735 1881
1735 2401
1735 2832
1735 3031
1735 3062
1735 3373
1735 3552
1735 4072
1735 4742
1735 4797
1735 5984
1735 6491
1735 7407
1736 2100
1736 2725
1736 3518
1736 3916
1736 3950
1736 4167
1736 4624
1736 4876
1736 5294
1736 6285
1736 6851
1736 7613
1736 7632
1737 2167
1737 2346
1737 2777
1737 4042
1737 6487
1737 7586
1737 8761
1737 9569
1738 5179
1738 7247
1738 7871
1739 2008
1739 2026
1739 2671
1739 2883
1739 3446
1739 3771
1739 4197
1739 4980
1739 5518
1739 5523
1739 5733
1739 6380
1739 7392
1739 8294
1739 8363
1740 2135
1740 2547
1740 2667
1740 3234
1740 3309
1740 3397
1740 3577
1740 4587
1740 5566
1740 5612
1740 5619
1740 7312
1740 7345
1740 7925
1740 9148
1741 2022
1741 2680
1741 3423
1741 4596
1741 6400
1741 8211
1742 1902
1742 2198
1742 2406
1742 2544
1742 2571
1742 2627
1742 3574
1742 5377
1742 5422
1742 6173
1742 6363
1742 6860
1742 7034
1742 7814
1742 8327
1742 8609
1743 2112
1743 2234
1743 2342
1743 2349
1743 2521
1743 2545
1743 2564
1743 2617
1743 2856
1743 3088
1743 3804
1743 3886
1743 4373
1743 4619
1743 5144
1743 5238
1743 5438
1743 5481
1743 5819
1743 5834
1743 5927
1743 6524
1743 6582
1743 6653
1743 7403
1743 8214
1743 9778
1744 1754
1744 2470
1744 2950
1744 3853
1744 4146
1744 5306
1744 6089
1744 6261
1744 6797
1744 6963
1744 8433
1744 8616
1745 1768
1745 2064
1745 3194
1745 3378
1745 3411
1745 3724
1745 3897
1745 5424
1745 6071
1745 6408
1745 6655
1745 8568
1745 9802
1746 1975
1746 2260
1746 2711
1746 3911
1746 4393
1746 4473
1746 4579
1746 4750
1746 5116
1746 5236
1746 5856
1746 5949
1746 6606
1746 6675
1746 7196
1746 7312
1746 7592
1746 8789
1746 9737
1746 9768
1747 1987
1747 2185
1747 2353
1747 2476
1747 2757
1747 2859
1747 3480
1747 4030
1747 4165
1747 4579
1747 4923
1747 6387
1747 6599
1747 6908
1747 7176
1747 7437
1747 7938
1747 8063
1747 8654
1747 8996
1747 9478
1748 1758
1748 2133
1748 3235
1748 3621
1748 4539
1748 5181
1748 6049
1748 6256
1748 6454
1748 6994
1748 7301
1748 8383
1748 9464
1748 9722
1749 1855
1749 1902
1749 1922
1749 1961
1749 2313
1749 2433
1749 2558
1749 2639
1749 2940
1749 3018
1749 3806
1749 4194
1749 4772
1749 6596
1749 6927
1749 7546
1749 7572
1749 7600
1750 2537
1750 2665
1750 3553
1750 9542
1751 2365
1751 2709
1751 2963
1751 3259
1751 3931
1751 5034
1751 5978
1751 6228
1751 6741
1751 7460
1751 8108
1751 9136
1752 2464
1752 2932
1752 3651
1752 3879
1752 4441
1752 4955
1752 5617
1752 5876
1752 6593
1752 7653
1752 8545
1752 8868
1752 8878
1753 2055
1753 2057
1753 4774
1753 4962
1753 5883
1753 6247
1753 6292
1753 7450
1754 1948
1754 2088
1754 2992
1754 4479
1754 4593
1754 5373
1754 6538
1754 6591
1754 7075
1754 7204
1754 7340
1754 8164
1754 9383
1755 1834
1755 2061
1755 2166
1755 2869
1755 3747
1755 4578
1755 6235
1755 6698
1755 7276
1755 7882
1755 9509
1756 1959
1756 2063
1756 2766
1756 3991
1756 4571
1756 6195
1756 8719
1757 2194
1757 2946
1757 3123
1757 6284
1757 8647
1757 8743
1757 9220
1758 1861
1758 2494
1758 2586
1758 2813
1758 2967
1758 3000
1758 3205
1758 4211
1758 4356
1758 5271
1758 5442
1758 6094
1758 6338
1758 7118
1758 7181
1758 7382
1758 7559
1758 7564
1758 8327
1759 1860
1759 2472
1759 2894
1759 3547
1759 3582
1759 4107
1759 4141
1759 4344
1759 4430
1759 5137
1759 5696
1759 6126
1759 7122
1759 7185
1759 7761
1759 7861
1759 9234
1760 2049
1760 2232
1760 2526
1760 3450
1760 3549
1760 4141
1760 4860
1760 5238
1760 6689
1760 6902
1760 8101
1760 8910
1760 9334
1761 1913
1761 2166
1761 2497
1761 2905
1761 2937
1761 3262
1761 3514
1761 3543
1761 3622
1761 4136
1761 4206
1761 5231
1761 6071
1761 6810
1761 6928
1761 8000
1761 8735
1761 8859
1761 9667
1762 2528
1762 2974
1762 3132
1762 4382
1762 4875
1762 4894
1762 5139
1762 5179
1762 6997
1762 9223
1762 9395
1762 9626
1763 1843
1763 1907
1763 2013
1763 2509
1763 2809
1763 3037
1763 3626
1763 3707
1763 4129
1763 4804
1763 5317
1763 6273
1763 6848
1763 7228
1763 7240
1763 8496
1763 8782
1763 8898
1763 9100
1763 9390
1763 9407
1764 1963
1764 2298
1764 2332
1764 2684
1764 2746
1764 2840
1764 3433
1764 3713
1764 4467
1764 4567
1764 4869
1764 5486
1764 5767
1764 6412
1764 6957
1764 7169
1764 7942
1764 7968
1764 8912
1764 8955
1765 2457
1765 2612
1765 3081
1765 3635
1765 4002
1765 7197
1765 8464
1765 9348
1766 2002
1766 2114
1766 2517
1766 2808
1766 3229
1766 3572
1766 3723
1766 4939
1766 5647
1766 5682
1766 6462
1766 6686
1766 7476
1766 7786
1766 7974
1766 8232
1766 8463
1766 8592
1766 8784
1766 8962
1766 9288
1766 9480
1766 9686
1767 2494
1767 2547
1767 2740
1767 3010
1767 3535
1767 4654
1767 4690
1767 5328
1767 6412
1767 6551
1767 6627
1767 6961
1767 7102
1767 8054
1767 8359
1767 9926
1768 2303
1768 3046
1768 3609
1768 5014
1768 5270
1768 5457
1768 6549
1768 6950
1768 8366
1768 8382
1768 8826
1768 9354
1769 1920
1769 2345
1769 2610
1769 5063
1769 5655
1769 5932
1769 6390
1769 7695
1769 9547
1770 1839
1770 2203
1770 2311
1770 2756
1770 3079
1770 3425
1770 3638
1770 3878
1770 4016
1770 4428
1770 4590
1770 5144
1770 5401
1770 5696
1770 6093
1770 6418
1770 7556
1770 7835
1770 7978
1770 9304
1770 9344
1770 9374
1770 9557
1770 9776
1771 2576
1771 3531
1771 3713
1771 4861
1771 5549
1771 5916
1771 6568
1771 8249
1771 8563
1772 3410
1772 3456
1772 5984
1772 7457
1772 8425
1772 8681
1772 9101
1773 2174
1773 2454
1773 2456
1773 2481
1773 2695
1773 2909
1773 3005
1773 3374
1773 5166
1773 5735
1773 5908
1773 6170
1773 8946
1773 9287
1773 9890
1774 2844
1774 3302
1774 5936
1774 6603
1774 7056
1774 8777
1774 8962
1774 9792
1775 1903
1775 2076
1775 2205
1775 2213
1775 2543
1775 3755
1775 4188
1775 4679
1775 5149
1775 5783
1775 5856
1775 6074
1775 7498
1775 7718
1775 7979
1775 8434
1775 8572
1775 8580
1775 8698
1775 9231
1776 1804
1776 1930
1776 1998
1776 2154
1776 2469
1776 3121
1776 3937
1776 4130
1776 4227
1776 5093
1776 5333
1776 6009
1776 7329
1776 7617
1776 8481
1776 8897
1777 2852
1777 3306
1777 3361
1777 3410
1777 3418
1777 3566
1777 4368
1777 4864
1777 5414
1777 5782
1777 6379
1777 6482
1777 7005
1777 7441
1777 8103
1777 8945
1778 2857
1778 3979
1778 5286
1778 6797
1778 9057
1779 1972
1779 2155
1779 2609
1779 2889
1779 3065
1779 3833
1779 4050
1779 5192
1779 6257
1779 6271
1779 7524
1779 7556
1779 8542
1779 8709
1779 8710
1779 8723
1779 8955
1779 9565
1779 9680
1779 9889
1780 1888
1780 2216
1780 2544
1780 2618
1780 3053
1780 3238
1780 3453
1780 3645
1780 4575
1780 5036
1780 5468
1780 5628
1780 8449
1780 9046
1780 9586
1780 9883
1781 1802
1781 2046
1781 3443
1781 3557
1781 4240
1781 4284
1781 5133
1781 5253
1781 5476
1781 6001
1781 6196
1781 6296
1781 6804
1781 8104
1781 8359
1781 8937
1782 1953
1782 2175
1782 2288
1782 2483
1782 3445
1782 3597
1782 4516
1782 5519
1782 6061
1782 6369
1782 6400
1782 7024
1783 1850
1783 1925
1783 2077
1783 2310
1783 2444
1783 2504
1783 3117
1783 3282
1783 3405
1783 4142
1783 4388
1783 4466
1783 4661
1783 4881
1783 5617
1783 6052
1783 6213
1783 6732
1783 7134
1783 7253
1783 8287
1783 8597
1783 9095
1783 9958
1784 2229
1784 2429
1784 2995
1784 3012
1784 3183
1784 3225
1784 3270
1784 3679
1784 4359
1784 5299
1785 1809
1785 1928
1785 2050
1785 2056
1785 2261
1785 3512
1785 4421
1785 4771
1785 4824
1785 6339
1785 6945
1785 8459
1786 1803
1786 1883
1786 1956
1786 2051
1786 2113
1786 2249
1786 2749
1786 2816
1786 3054
1786 3591
1786 4270
1786 4623
1786 4706
1786 4962
1786 5491
1786 5595
1786 6093
1786 6508
1786 6556
1786 6825
1786 7271
1786 7282
1786 7352
1786 7837
1786 7957
1786 9019
1786 9373
1787 4359
1787 4886
1787 5126
1787 7072
1787 7848
1787 8852
1787 9167
1788 1837
1788 2205
1788 2277
1788 2776
1788 3215
1788 3858
1788 3972
1788 4221
1788 4704
1788 4996
1788 5827
1788 5895
1788 6086
1788 6194
1788 7026
1788 7793
1788 8095
1788 8111
1788 8497
1788 8927
1788 9275
1788 9549
1788 9577
1789 2729
1789 3473
1789 3629
1789 4112
1789 5791
1789 6282
1789 6439
1789 6753
1789 7156
1789 7881
1789 8409
1789 8920
1789 9519
1790 1821
1790 1856
1790 1986
1790 2043
1790 2456
1790 3246
1790 3767
1790 4825
1790 5235
1790 5378
1790 7219
1790 8630
1791 1814
1791 1840
1791 2596
1791 4007
1791 4520
1791 5013
1791 5040
1791 5220
1791 5920
1791 6473
1791 6713
1791 7719
1791 8200
1791 8501
1791 8772
1791 9683
1792 1806
1792 2588
1792 2918
1792 3945
1792 4436
1792 4500
1792 5562
1792 8452
1792 8779
1792 9437
1792 9614
1793 1991
1793 2130
1793 2497
1793 3191
1793 3195
1793 3226
1793 3402
1793 3734
1793 3994
1793 4056
1793 4301
1793 4394
1793 4474
1793 4563
1793 5031
1793 5821
1793 5853
1793 9461
1794 1801
1794 2034
1794 2044
1794 2323
1794 2379
1794 2565
1794 2823
1794 2905
1794 2911
1794 3057
1794 3249
1794 3417
1794 3435
1794 3787
1794 4431
1794 4808
1794 5692
1794 5843
1794 5875
1794 6098
1794 6443
1794 7591
1794 7936
1794 8074
1794 8336
1794 8400
1794 8679
1794 9266
1794 9667
1795 2582
1795 2941
1795 3872
1795 4781
1795 4865
1795 7315
1795 9371
1795 9781
1796 1914
1796 2207
1796 2771
1796 2893
1796 3478
1796 3877
1796 4186
1796 4219
1796 4229
1796 4550
1796 5577
1796 7181
1796 8515
1796 9935
1797 2517
1797 2747
1797 6862
1797 8327
1797 8577
1798 1824
1798 2177
1798 2358
1798 2916
1798 3071
1798 3969
1798 4182
1798 4392
1798 4933
1798 5312
1798 6581
1798 8102
1798 8364
1799 2036
1799 2041
1799 2062
1799 2332
1799 2593
1799 2745
1799 3647
1799 4291
1799 4440
1799 4522
1799 4582
1799 5011
1799 5622
1799 6795
1799 7170
1799 7440
1799 7627
1799 9237
1799 9422
1799 9685
1799 9824
1800 1907
1800 2427
1800 4601
1800 4760
1800 4834
1800 5033
1800 5781
1800 5794
1800 6606
1800 7525
1800 8129
1800 8173
1800 8932
1800 9516
1800 9841
1801 1968
1801 2050
1801 2163
1801 2281
1801 2569
1801 2871
1801 3064
1801 3665
1801 4001
1801 4349
1801 4373
1801 5052
1801 5293
1801 5763
1801 6162
1801 6440
1801 7419
1801 7603
1801 7763
1801 7924
1801 8021
1801 8056
1801 8306
1801 8380
1801 8614
1801 8760
1801 9210
1802 1878
1802 1903
1802 2261
1802 2373
1802 2602
1802 2685
1802 3056
1802 3166
1802 3168
1802 3377
1802 3730
1802 3746
1802 4053
1802 4448
1802 4690
1802 6014
1802 6702
1802 7160
1802 7491
1802 7896
1802 8545
1802 9487
1802 9757
1802 9881
1803 1981
1803 8702
1803 8732
1803 9678
1804 2222
1804 2661
1804 5057
1804 5183
1804 5474
1804 5677
1804 7265
1804 8603
1805 1875
1805 2102
1805 2261
1805 2825
1805 2949
1805 3000
1805 3172
1805 4166
1805 4466
1805 4771
1805 5291
1805 5675
1805 6233
1805 7054
1805 8081
1805 9166
1805 9332
1806 2579
1806 3400
1806 4045
1806 4304
1806 4983
1806 5226
1806 6256
1806 6971
1807 1911
1807 1950
1807 3044
1807 3126
1807 3923
1807 3927
1807 4024
1807 4990
1807 5119
1807 5138
1807 5328
1807 6545
1807 6958
1807 7132
1807 8078
1807 8095
1807 8668
1807 9071
1807 9296
1807 9300
1807 9412
1808 1925
1808 1967
1808 2339
1808 2642
1808 2731
1808 2742
1808 2839
1808 3315
1808 4154
1808 6068
1808 6829
1808 6955
1808 8263
1808 9250
1809 2020
1809 3540
1809 3767
1809 3889
1809 5814
1809 6915
1809 7306
1809 7917
1809 7929
1809 8261
1810 2178
1810 2467
1810 2732
1810 3116
1810 3296
1810 3380
1810 3460
1810 4187
1810 4194
1810 4716
1810 5128
1810 5343
1810 6016
1810 6234
1810 6249
1810 6436
1810 7116
1810 7986
1810 8970
1810 9324
1810 9415
1811 2470
1811 3710
1811 4335
1811 5035
1811 5508
1811 6608
1811 7948
1812 1925
1812 3154
1812 3945
1812 4115
1812 6018
1812 6986
1812 8687
1812 8911
1812 9815
1813 2636
1813 2665
1813 2803
1813 2904
1813 3061
1813 3103
1813 3339
1813 3363
1813 3571
1813 3971
1813 4215
1813 4366
1813 5281
1813 5431
1813 5435
1813 5766
1813 6172
1813 6355
1813 6533
1813 6623
1813 6722
1813 6763
1813 6813
1813 7305
1813 7372
1813 7641
1813 8068
1813 9903
1814 2273
1814 2295
1814 2409
1814 2587
1814 2673
1814 3184
1814 3700
1814 7062
1814 7390
1814 8655
1815 2499
1815 2980
1815 3226
1815 3710
1815 3729
1815 3911
1815 4470
1815 4663
1815 5033
1815 5388
1815 6233
1815 8583
1815 9666
1816 2240
1816 2865
1816 3163
1816 6825
1816 9517
1817 1871
1817 1942
1817 2642
1817 2675
1817 4448
1817 4830
1817 5060
1817 5110
1817 6445
1817 6782
1817 9939
1818 2141
1818 5073
1818 8012
1818 8562
1818 8617
1818 8797
1818 9258
1819 1908
1819 1926
1819 1966
1819 2488
1819 3971
1819 4646
1819 4801
1819 5751
1819 6278
1819 6337
1819 6808
1820 1845
1820 1978
1820 1994
1820 2408
1820 2682
1820 3248
1820 3648
1820 4169
1820 4645
1820 4714
1820 4757
1820 4969
1820 5101
1820 5215
1820 5624
1820 6261
1820 6679
1820 8357
1820 8765
1820 9172
1820 9364
1821 1837
1821 2497
1821 2744
1821 2879
1821 3533
1821 4455
1821 4612
1821 5525
1821 6886
1821 7004
1821 7315
1821 7589
1821 7621
1821 7877
1821 8019
1821 8056
1821 9825
1821 9950
1822 2095
1822 2160
1822 2471
1822 2490
1822 3069
1822 4075
1822 4672
1822 5693
1822 5997
1822 6591
1822 6662
1822 6999
1822 8108
1823 1860
1823 1920
1823 2052
1823 2243
1823 2730
1823 2818
1823 2927
1823 3198
1823 3534
1823 3567
1823 4255
1823 4388
1823 5288
1823 5814
1823 7010
1823 8121
1823 8271
1823 8992
1824 1945
1824 2091
1824 2129
1824 2947
1824 3175
1824 4259
1824 4272
1824 9146
1824 9503
1825 2199
1825 2518
1825 2536
1825 3208
1825 3367
1825 3523
1825 4694
1825 4794
1825 5499
1825 6804
1825 7047
1825 7414
1825 7993
1825 8199
1825 8224
1825 8506
1825 9862
1826 2753
1826 3429
1826 3651
1826 3658
1826 3660
1826 3760
1826 4082
1826 4346
1826 4861
1826 4976
1826 4988
1826 5580
1826 5664
1826 6254
1826 6444
1826 7017
1826 7025
1826 7295
1826 8363
1826 8661
1826 9025
1827 2321
1827 2675
1827 2918
1827 3549
1827 4073
1827 5636
1827 6476
1827 7859
1827 9757
1827 9923
1828 1883
1828 1961
1828 2205
1828 2714
1828 3794
1828 4241
1828 4718
1828 4848
1828 4849
1828 5047
1828 7360
1828 7846
1828 8675
1828 8915
1828 9434
1829 2255
1829 2407
1829 2631
1829 3669
1829 3860
1829 4982
1829 5197
1829 6589
1829 7062
1829 7761
1829 8790
1829 9118
1829 9396
1829 9440
1829 9577
1830 2518
1830 3204
1830 3241
1830 5474
1830 5667
1830 5734
1830 7105
1830 7250
1830 8324
1831 1944
1831 2096
1831 2300
1831 2612
1831 2880
1831 3175
1831 3693
1831 4333
1831 4431
1831 4498
1831 4586
1831 4966
1831 5002
1831 5379
1831 5469
1831 5590
1831 5632
1831 5931
1831 6371
1831 6588
1831 6744
1831 6915
1831 8224
1831 8457
1831 8573
1831 9721
1832 1955
1832 2171
1832 2458
1832 2498
1832 3532
1832 4183
1832 4388
1832 4795
1832 4822
1832 6228
1832 6346
1832 6846
1832 7112
1832 7167
1832 8502
1832 9292
1832 9571
1832 9895
1833 2145
1833 3237
1833 3421
1833 4599
1833 5139
1833 5175
1833 5512
1833 5524
1833 6342
1833 6682
1833 8690
1834 2528
1834 2948
1834 3435
1834 3748
1834 3770
1834 4267
1834 4334
1834 6091
1834 6899
1834 8490
1834 9194
1834 9721
1834 9857
1835 2315
1835 2608
1835 4783
1835 5501
1835 6357
1835 6916
1835 7223
1835 8618
1836 1917
1836 2049
1836 2075
1836 2121
1836 2200
1836 2402
1836 2614
1836 2859
1836 2949
1836 3768
1836 4376
1836 4419
1836 5117
1836 5255
1836 5529
1836 5740
1836 6381
1836 7071
1836 7116
1836 7334
1836 7654
1836 7681
1836 8655
1836 8763
1836 8877
1836 9338
1836 9468
1837 2075
1837 3059
1837 3106
1837 4340
1837 4743
1837 5167
1837 5355
1837 5615
1837 6594
1837 7877
1837 9226
1837 9227
1838 2222
1838 2233
1838 2518
1838 2589
1838 2680
1838 3888
1838 4477
1838 5131
1838 5201
1838 5220
1838 5321
1838 5501
1838 5836
1838 6116
1838 6118
1838 7522
1838 7588
1838 8243
1838 8583
1838 8662
1839 2115
1839 2653
1839 2910
1839 2924
1839 3101
1839 4992
1839 5137
1839 8402
1840 2066
1840 2508
1840 2892
1840 3724
1840 6025
1840 6946
1840 7798
1840 8021
1840 8244
1840 8848
1840 9046
1840 9111
1841 2237
1841 2829
1841 3445
1841 4311
1841 4348
1841 4833
1841 4873
1841 5552
1841 5831
1841 6064
1841 7152
1841 7810
1842 3244
1842 3297
1842 4118
1842 4408
1842 6742
1843 2157
1843 2393
1843 2685
1843 2965
1843 3090
1843 3344
1843 3602
1843 3657
1843 5276
1843 5981
1843 6218
1843 6839
1843 7605
1843 7847
1843 8128
1843 8944
1844 2016
1844 2065
1844 2247
1844 2577
1844 3311
1844 3476
1844 3616
1844 4127
1844 4422
1844 4756
1844 5287
1844 5355
1844 7103
1844 9463
1845 2358
1845 2362
1845 2550
1845 2569
1845 2753
1845 3853
1845 4046
1845 4326
1845 5042
1845 5094
1845 5514
1845 5570
1845 6058
1845 6658
1845 8004
1845 8139
1845 8520
1845 9436
1845 9554
1846 6197
1846 8927
1846 9649
1846 9842
1847 2164
1847 2928
1847 3389
1847 3452
1847 4013
1847 4411
1847 5316
1847 5767
1847 5774
1847 6966
1847 8055
1847 8894
1847 9437
1847 9692
1848 1928
1848 2018
1848 3162
1848 4337
1848 5083
1848 5200
1848 5600
1848 5652
1848 6778
1848 7131
1848 7788
1848 8647
1848 8855
1848 9752
1849 1919
1849 2007
1849 2074
1849 2258
1849 2845
1849 3351
1849 3369
1849 3531
1849 4124
1849 4223
1849 4606
1849 5637
1849 6131
1849 6954
1849 8224
1849 9685
1849 9817
1850 2021
1850 2231
1850 2254
1850 2367
1850 2380
1850 2443
1850 3194
1850 3411
1850 3604
1850 3700
1850 3707
1850 3718
1850 3904
1850 4061
1850 4092
1850 4340
1850 4954
1850 5289
1850 6170
1850 6312
1850 6359
1850 6407
1850 7196
1850 8207
1850 9557
1851 2090
1851 2821
1851 3675
1851 4059
1851 4332
1851 4547
1851 8676
1851 8745
1851 8950
1851 9763
1852 1949
1852 2490
1852 2783
1852 3001
1852 3285
1852 5095
1852 5359
1852 5712
1852 6333
1852 6935
1852 7232
1852 7516
1852 7746
1852 7836
1852 8532
1853 2713
1853 3157
1853 4628
1853 5051
1853 5659
1853 5770
1853 6224
1853 6232
1853 6474
1853 8012
1853 8116
1853 8452
1853 8781
1853 9555
1854 1976
1854 2141
1854 2384
1854 5740
1854 7995
1854 8968
1854 9335
1855 2742
1855 3190
1855 8605
1855 9594
1855 9695
1856 3038
1856 4226
1856 4733
1856 5895
1856 6059
1856 7905
1856 8373
1856 8746
1857 2015
1857 2026
1857 3586
1857 3855
1857 4904
1857 5522
1857 5526
1857 6322
1857 7477
1857 8102
1858 3692
1858 5236
1858 7577
1858 8051
1858 9045
1859 2010
1859 2093
1859 2125
1859 2264
1859 2471
1859 2532
1859 2615
1859 2643
1859 3099
1859 3381
1859 3951
1859 4064
1859 5637
1859 6374
1859 6687
1859 6752
1859 7213
1859 7454
1859 7930
1859 8198
1859 8412
1860 3640
1860 3851
1860 4344
1860 5053
1860 5425
1860 6700
1860 6762
1860 7354
1860 8490
1860 8842
1861 1949
1861 2134
1861 2389
1861 2660
1861 2747
1861 3800
1861 4308
1861 4731
1861 7041
1861 7085
1861 7905
1861 8637
1861 9318
1861 9930
1862 2014
1862 2031
1862 2390
1862 2729
1862 3113
1862 3199
1862 3680
1862 4718
1862 5585
1862 5721
1862 6320
1862 6537
1862 6755
1862 6951
1862 7619
1862 9631
1862 9933
1863 2234
1863 4620
1863 5217
1863 9488
1864 2362
1864 4169
1864 4382
1864 4407
1864 4537
1864 5977
1864 6479
1864 6817
1864 7111
1864 7941
1864 8102
1864 8236
1864 8719
1864 8897
1864 9640
1864 9748
1865 1875
1865 2019
1865 2377
1865 2599
1865 2761
1865 3142
1865 3544
1865 3688
1865 3797
1865 4284
1865 4316
1865 4694
1865 6508
1865 6862
1865 7008
1865 7864
1865 8652
1865 9263
1866 1884
1866 1899
1866 2219
1866 2337
1866 2404
1866 2405
1866 2837
1866 3809
1866 4181
1866 4465
1866 4577
1866 4764
1866 5426
1866 5603
1866 6662
1866 7004
1866 7464
1866 7505
1866 7559
1866 7678
1866 9338
1866 9932
1867 2094
1867 2427
1867 2875
1867 5139
1867 6803
1867 6904
1867 7359
1867 7731
1867 8137
1867 8229
1867 8275
1867 8873
1868 1962
1868 2173
1868 2179
1868 2212
1868 2447
1868 2615
1868 3340
1868 3388
1868 4300
1868 4355
1868 7517
1868 7881
1868 8546
1868 8857
1868 9459
1869 2254
1869 2314
1869 2319
1869 3117
1869 3725
1869 5418
1869 5602
1869 6073
1869 7220
1869 7298
1869 7632
1869 8014
1869 8482
1869 9681
1870 2048
1870 2214
1870 2647
1870 2809
1870 3353
1870 4462
1870 4744
1870 5040
1870 5046
1870 5051
1870 5311
1870 5343
1870 6382
1870 6750
1870 7309
1870 7482
1870 7542
1870 7778
1870 7850
1870 7904
1870 8090
1870 8184
1870 9913
1871 1878
1871 2563
1871 2624
1871 3465
1871 3681
1871 3947
1871 4001
1871 5453
1871 6772
1871 8165
1871 8817
1871 9242
1871 9751
1872 2147
1872 2944
1872 2980
1872 3843
1872 3867
1872 4164
1872 4285
1872 4502
1872 6783
1872 7868
1872 8315
1872 9052
1872 9878
1873 2013
1873 4987
1873 5867
1873 6280
1873 6947
1873 7356
1873 9982
1874 1929
1874 2414
1874 3335
1874 3674
1874 3792
1874 3902
1874 3947
1874 3950
1874 4286
1874 4783
1874 5023
1874 5086
1874 5330
1874 6048
1874 7092
1874 7208
1874 7325
1874 7956
1874 8154
1874 8368
1874 8480
1875 2047
1875 2235
1875 2280
1875 2390
1875 2396
1875 2439
1875 3930
1875 4031
1875 4534
1875 6516
1875 6705
1875 8098
1875 8204
1876 2574
1876 2785
1876 2992
1876 3366
1876 3426
1876 3794
1876 5515
1876 5729
1876 5775
1876 6133
1876 6727
1876 6786
1876 7537
1877 2393
1877 2459
1877 2871
1877 3447
1877 3624
1877 3836
1877 4164
1877 5684
1877 6977
1877 7514
1877 9203
1877 9891
1877 9898
1878 2282
1878 2317
1878 2807
1878 2892
1878 5694
1878 6041
1878 7636
1878 8814
1878 9140
1878 9805
1878 9839
1879 2048
1879 3043
1879 3239
1879 3925
1879 4352
1879 4373
1879 5483
1879 5739
1879 5996
1879 6744
1879 7709
1879 8111
1879 8792
1879 9326
1879 9913
1880 1918
1880 2324
1880 2368
1880 2491
1880 3885
1880 5086
1880 5246
1880 5375
1880 5934
1880 7338
1880 8413
1880 8957
1881 2090
1881 2188
1881 2280
1881 2595
1881 2616
1881 2819
1881 3186
1881 3988
1881 5073
1881 5175
1881 5540
1881 5715
1881 6119
1881 6189
1881 6303
1881 6332
1881 6633
1881 7112
1881 7609
1881 9108
1881 9113
1881 9239
1881 9481
1881 9683
1882 2022
1882 2151
1882 2375
1882 3491
1882 3902
1883 1904
1883 2113
1883 2548
1883 2615
1883 2862
1883 2896
1883 3839
1883 4599
1883 5718
1883 5812
1883 6017
1883 6050
1883 7452
1883 7998
1883 8673
1883 9042
1883 9839
1884 2958
1884 3249
1884 3292
1884 3310
1884 3820
1884 3861
1884 4123
1884 4142
1884 4169
1884 5870
1884 6607
1884 6745
1884 6830
1884 6900
1884 6962
1884 7226
1884 7779
1884 8514
1884 8745
1884 8863
1884 8964
1884 9106
1884 9587
1884 9936
1885 2043
1885 2184
1885 2386
1885 2749
1885 2795
1885 3312
1885 3337
1885 3455
1885 3897
1885 4306
1885 4570
1885 5562
1885 5665
1885 5696
1885 6498
1885 6642
1885 7000
1885 7896
1885 7974
1885 8095
1885 8604
1885 9243
1885 9408
1886 2012
1886 2105
1886 2286
1886 2311
1886 2324
1886 2332
1886 2391
1886 2448
1886 2627
1886 2962
1886 3124
1886 3863
1886 3970
1886 4106
1886 4195
1886 4441
1886 4920
1886 6072
1886 6607
1886 6651
1886 6696
1886 6697
1886 6893
1886 6923
1886 7440
1886 7448
1886 7624
1886 7635
1886 7924
1886 8767
1886 9203
1886 9459
1886 9493
1886 9993
1887 2255
1887 3033
1887 3415
1887 3873
1887 3980
1887 4415
1887 4847
1887 6379
1887 7276
1887 8803
1887 9170
1887 9510
1888 2432
1888 2632
1888 2785
1888 3593
1888 4986
1888 5718
1888 5951
1888 6299
1888 6620
1888 7272
1888 8372
1888 8999
1888 9716
1889 2348
1889 2407
1889 2419
1889 2518
1889 2671
1889 2993
1889 3478
1889 4099
1889 4466
1889 4626
1889 4738
1889 5011
1889 5190
1889 5435
1889 6370
1889 6601
1889 7694
1889 7703
1889 9169
1889 9430
1889 9469
1890 2253
1890 2454
1890 2556
1890 3013
1890 3696
1890 4704
1890 5262
1890 5401
1890 5463
1890 5651
1890 5791
1890 5958
1890 6185
1890 6423
1890 6746
1890 7856
1890 7954
1890 8637
1890 9399
1891 2589
1891 2995
1891 4953
1891 5354
1891 7358
1891 8643
1891 8963
1892 1935
1892 1952
1892 2056
1892 2245
1892 2256
1892 2774
1892 2826
1892 3085
1892 3460
1892 3619
1892 4603
1892 5423
1892 5484
1892 5757
1892 5782
1892 5938
1892 5964
1892 5988
1892 6386
1892 6791
1892 7005
1892 7253
1892 7339
1892 8136
1892 8356
1892 8606
1892 8797
1893 2397
1893 2662
1893 2696
1893 2790
1893 2888
1893 3083
1893 3615
1893 3742
1893 3965
1893 5065
1893 5118
1893 7201
1893 7345
1893 7532
1893 7855
1893 8913
1893 9489
1894 2535
1894 2572
1894 2975
1894 3105
1894 3154
1894 3333
1894 5596
1894 6010
1894 6409
1894 6614
1894 7770
1894 8199
1894 8248
1894 8666
1894 8834
1894 9041
1895 2064
1895 3009
1895 3555
1895 6745
1896 2168
1896 2333
1896 3029
1896 3947
1896 4151
1896 4385
1896 4590
1896 4772
1896 5249
1896 6111
1896 6198
1896 6640
1896 6701
1896 6956
1896 7333
1896 8153
1896 8291
1897 2061
1897 2152
1897 3517
1897 4412
1897 4482
1897 4746
1897 5118
1897 5148
1897 7524
1897 8246
1897 8554
1897 8692
1898 1924
1898 1972
1898 2116
1898 2430
1898 2549
1898 2761
1898 3237
1898 3276
1898 4038
1898 5086
1898 5112
1898 5313
1898 6341
1898 6389
1898 6949
1898 7660
1898 7981
1898 8115
1898 8514
1898 9089
1899 1930
1899 2094
1899 2379
1899 4924
1899 5167
1899 8411
1900 2067
1900 6992
1900 7355
1900 7520
1900 8555
1900 8808
1900 8836
1900 8907
1900 9096
1901 1925
1901 2237
1901 2306
1901 2343
1901 2361
1901 2554
1901 2780
1901 3416
1901 3718
1901 3777
1901 4233
1901 5066
1901 5094
1901 5206
1901 6409
1901 7176
1901 7470
1901 7610
1901 8345
1902 2096
1902 2098
1902 2280
1902 2736
1902 3153
1902 3209
1902 4580
1902 5009
1902 5761
1902 5938
1902 5957
1902 6281
1902 6729
1902 6987
1902 7199
1902 8211
1902 8293
1902 8676
1902 8817
1903 2244
1903 2695
1903 2835
1903 3714
1903 4166
1903 4792
1903 5975
1903 5999
1903 6132
1903 6769
1903 8796
1903 8547
1904 2382
1904 2658
1904 3136
1904 3455
1904 5079
1904 5720
1904 6481
1904 6587
1904 8072
1904 8544
1904 8856
1905 2158
1905 2730
1905 4495
1905 4692
1905 4854
1905 5796
1905 7632
1905 9135
1905 9538
1906 2037
1906 2215
1906 2560
1906 2899
1906 3219
1906 3754
1906 3816
1906 5284
1906 5367
1906 7335
1906 8355
1906 8783
1906 9002
1907 3903
1907 4454
1907 5510
1907 7099
1907 8485
1907 8746
1907 9992
1908 2412
1908 2856
1908 3629
1908 4418
1908 4605
1908 5075
1908 5299
1908 6327
1908 7300
1908 7310
1908 8444
1908 8623
1909 2757
1909 3524
1909 7044
1909 7705
1909 9091
1910 2165
1910 2442
1910 3910
1910 3939
1910 6062
1910 7041
1910 7194
1910 8060
1910 8403
1910 8426
1910 9899
1911 2185
1911 3351
1911 3444
1911 3771
1911 3972
1911 4285
1911 4723
1911 4971
1911 6252
1911 6339
1911 6716
1911 6788
1911 6985
1911 8096
1911 8104
1911 8376
1912 1964
1912 2545
1912 2788
1912 2963
1912 3883
1912 3908
1912 4045
1912 5656
1912 5914
1912 8421
1912 8972
1912 9253
1912 9975
1913 2159
1913 2161
1913 2283
1913 2850
1913 3056
1913 3059
1913 3136
1913 3425
1913 3483
1913 4158
1913 4349
1913 4435
1913 4578
1913 4818
1913 5595
1913 6059
1913 6766
1913 7873
1913 8031
1913 8036
1913 8869
1913 9106
1913 9187
1914 2317
1914 2836
1914 3653
1914 3761
1914 4873
1914 5015
1914 5182
1914 5838
1914 6186
1914 6514
1914 7996
1914 8098
1914 8697
1914 9740
1915 2425
1915 2450
1915 2494
1915 2813
1915 3160
1915 5125
1915 5647
1915 5850
1915 6435
1915 6459
1915 7499
1915 8802
1915 9548
1916 2301
1916 2677
1916 2697
1916 2769
1916 2925
1916 4609
1916 5082
1916 5428
1916 5706
1916 6511
1916 6768
1916 7206
1916 7511
1916 9240
1916 9384
1916 9782
1917 1924
1917 2099
1917 3533
1917 3583
1917 3822
1917 4278
1917 4528
1917 5277
1917 6122
1917 6133
1917 7987
1917 8124
1917 9248
1917 9523
1917 9948
1918 2028
1918 2093
1918 2414
1918 3907
1918 4411
1918 5724
1918 6028
1918 8095
1918 8230
1918 8654
1919 1954
1919 2147
1919 2457
1919 2540
1919 3083
1919 3356
1919 4107
1919 4235
1919 4442
1919 5061
1919 5566
1919 7607
1919 7646
1919 8259
1919 8566
1919 9806
1919 9940
1920 3059
1920 3094
1920 3128
1920 3887
1920 4128
1920 4325
1920 5429
1920 5615
1920 5988
1920 6495
1920 7140
1920 7486
1920 8982
1920 9597
1920 9994
1921 2118
1921 2596
1921 2877
1921 3843
1921 6341
1921 6659
1921 7839
1921 8212
1921 8602
1921 9209
1921 9493
1922 3152
1922 3215
1922 3914
1922 4199
1922 4627
1922 5010
1922 5713
1922 5731
1922 8687
1923 3399
1923 3641
1923 3803
1923 5485
1923 6255
1923 6410
1923 6526
1923 6671
1923 6830
1923 7133
1923 8069
1923 8550
1923 8584
1923 8641
1924 2494
1924 2609
1924 3308
1924 4758
1924 4797
1924 4821
1924 4996
1924 5534
1924 5856
1924 6741
1924 9412
1924 9911
1925 2151
1925 3221
1925 3632
1925 3737
1925 4203
1925 4329
1925 4349
1925 4996
1925 5803
1925 6060
1925 6214
1925 6844
1925 7641
1925 7708
1925 7849
1925 7871
1926 2431
1926 3263
1926 3328
1926 4178
1926 4950
1926 5437
1926 5898
1926 6608
1926 7519
1926 9141
1926 9996
1927 2095
1927 2551
1927 2701
1927 2874
1927 3245
1927 3305
1927 4006
1927 4270
1927 4409
1927 4766
1927 5003
1927 5101
1927 5291
1927 5533
1927 8091
1927 9083
1927 9774
1928 1961
1928 2140
1928 2390
1928 2403
1928 2617
1928 2781
1928 2864
1928 2931
1928 3393
1928 3410
1928 4601
1928 5116
1928 5844
1928 6250
1928 6469
1928 7307
1928 8251
1928 8387
1928 9343
1929 1970
1929 2437
1929 2535
1929 3715
1929 5062
1929 5302
1929 5890
1929 5965
1929 6507
1929 6968
1929 7294
1929 7626
1929 9420
1929 9686
1930 1947
1930 1995
1930 2383
1930 2461
1930 2994
1930 3068
1930 3620
1930 3661
1930 4903
1930 4988
1930 6373
1930 7249
1930 7376
1930 7854
1930 8442
1930 9808
1930 9982
1931 1940
1931 2083
1931 2169
1931 4645
1931 5455
1931 5635
1931 6234
1931 8847
1931 8952
1931 9433
1931 9692
1932 2329
1932 2666
1932 4611
1932 5588
1932 5714
1932 5934
1932 6941
1932 7257
1932 7848
1932 9381
1933 1990
1933 2994
1933 3145
1933 3299
1933 4589
1933 4761
1933 4835
1933 5279
1933 5357
1933 6323
1933 7322
1933 7705
1933 9213
1934 2589
1934 2840
1934 3723
1934 3837
1934 3940
1934 3947
1934 4173
1934 5016
1934 5317
1934 5667
1934 7678
1934 9602
1935 2152
1935 2242
1935 2436
1935 2534
1935 2605
1935 2941
1935 3255
1935 3537
1935 3650
1935 3844
1935 4710
1935 5129
1935 5237
1935 7819
1935 8912
1936 2760
1936 2878
1936 4533
1936 4619
1936 6140
1936 6891
1936 7370
1936 7853
1936 8504
1937 2078
1937 2179
1937 2227
1937 2261
1937 2351
1937 3127
1937 3802
1937 4058
1937 4148
1937 4157
1937 4313
1937 4551
1937 5122
1937 6345
1937 6391
1937 6756
1937 6884
1937 6973
1937 7674
1937 8315
1937 9206
1937 9349
1937 9529
1938 1952
1938 2044
1938 2299
1938 2917
1938 3181
1938 3196
1938 3995
1938 4023
1938 4755
1938 5392
1938 5724
1938 6062
1938 6174
1938 6475
1938 6478
1938 6916
1938 7626
1938 8552
1938 8678
1939 2159
1939 2388
1939 2534
1939 2775
1939 2784
1939 3458
1939 4076
1939 4143
1939 5199
1939 5519
1939 5894
1939 6236
1939 6308
1939 6328
1939 7887
1939 8233
1939 8246
1939 8391
1939 8550
1940 2996
1940 3863
1940 5368
1940 6153
1940 6383
1940 6512
1940 6634
1940 7199
1940 9600
1940 9631
1940 9733
1941 2629
1941 2775
1941 3069
1941 4667
1941 4999
1941 5183
1941 5868
1941 6447
1941 7149
1941 8418
1941 9125
1942 2274
1942 3762
1942 3860
1942 5423
1942 5425
1942 6052
1942 7251
1943 2126
1943 4275
1943 4347
1943 4885
1943 5104
1943 6513
1943 7567
1943 8562
1943 8936
1944 2020
1944 2157
1944 2999
1944 3330
1944 3504
1944 3516
1944 4024
1944 4320
1944 4551
1944 4702
1944 5536
1944 5819
1944 5884
1944 6048
1944 7489
1944 7916
1944 8060
1944 8751
1944 8765
1944 9136
1945 2123
1945 2773
1945 2902
1945 2959
1945 3102
1945 3900
1945 4052
1945 4504
1945 4597
1945 4783
1945 5162
1945 5301
1945 5605
1945 5931
1945 6147
1945 6720
1945 8811
1945 9284
1946 2147
1946 2440
1946 2977
1946 3230
1946 3418
1946 3464
1946 3552
1946 4072
1946 5438
1946 5891
1946 6195
1946 6469
1946 6535
1946 6788
1946 7154
1946 7417
1946 7458
1946 7821
1946 7901
1946 8126
1946 8476
1947 2117
1947 2235
1947 2449
1947 2719
1947 2770
1947 2840
1947 3494
1947 4785
1947 4968
1947 5207
1947 7384
1947 7511
1947 8066
1948 1961
1948 2073
1948 3200
1948 3433
1948 3709
1948 3895
1948 3900
1948 3986
1948 4562
1948 5406
1948 5428
1948 6340
1948 7464
1948 7726
1948 8019
1949 2572
1949 3332
1949 3734
1949 4234
1949 4360
1949 6221
1949 6713
1949 7068
1949 8191
1949 8315
1949 8636
1949 9128
1949 9179
1949 9589
1950 2241
1950 2542
1950 2673
1950 2704
1950 2857
1950 6425
1950 6961
1950 7686
1950 7866
1951 2037
1951 2449
1951 2490
1951 2944
1951 5477
1951 7385
1951 7815
1951 9027
1952 3870
1952 9109
1953 2486
1953 4852
1953 5607
1953 7028
1953 8398
1954 2109
1954 2292
1954 2391
1954 2482
1954 2575
1954 5090
1954 5494
1954 5607
1954 5820
1954 5980
1954 6317
1954 6438
1954 6466
1954 7053
1954 8702
1955 2623
1955 2973
1955 3050
1955 8790
1955 9202
1956 2049
1956 2184
1956 2265
1956 2323
1956 2428
1956 2465
1956 2809
1956 3128
1956 3643
1956 3886
1956 4741
1956 5352
1956 5566
1956 5738
1956 5880
1956 5995
1956 6153
1956 6411
1956 6619
1956 7017
1956 7025
1956 7312
1956 7620
1956 7670
1956 8007
1956 8019
1956 8509
1956 9170
1956 9248
1956 9734
1956 9795
1957 2538
1957 3792
1957 4479
1957 4592
1957 4735
1957 5061
1957 5325
1957 6461
1957 7439
1957 7461
1957 9335
1957 9845
1958 2236
1958 2330
1958 2673
1958 2988
1958 2995
1958 3587
1958 3593
1958 4150
1958 4879
1958 7733
1958 7853
1958 8124
1958 8345
1958 8450
1958 8779
1958 9361
1958 9431
1958 9456
1958 9654
1958 9874
1959 2273
1959 2387
1959 2500
1959 2650
1959 2747
1959 2968
1959 2993
1959 3975
1959 4308
1959 4471
1959 4654
1959 4938
1959 5286
1959 5327
1959 5354
1959 6365
1959 6676
1959 7032
1959 7816
1959 8700
1959 9317
1959 9793
1959 9933
1959 9967
1960 2490
1960 2507
1960 2723
1960 2761
1960 3512
1960 3993
1960 4231
1960 4375
1960 5162
1960 5381
1960 5561
1960 5694
1960 5921
1960 6181
1960 9054
1960 9241
1960 9512
1960 9565
1961 2156
1961 2536
1961 2810
1961 3093
1961 3391
1961 3668
1961 3994
1961 4098
1961 4132
1961 4322
1961 4671
1961 4819
1961 6384
1961 6386
1961 6469
1961 6701
1961 7022
1961 7631
1961 8067
1961 8168
1961 9722
1962 2100
1962 2182
1962 2333
1962 2495
1962 2515
1962 3068
1962 4672
1962 6010
1962 6040
1962 6649
1962 7348
1962 7847
1962 8506
1962 8755
1962 9529
1963 2030
1963 2118
1963 2722
1963 2952
1963 3247
1963 4941
1963 5408
1963 5734
1963 5883
1963 5894
1963 5936
1963 6259
1963 7219
1963 7340
1963 7765
1963 8977
1963 9096
1963 2744
1964 2924
1964 3846
1964 3867
1964 3924
1964 4518
1964 7243
1964 8894
1965 2222
1965 3211
1965 3554
1965 3969
1965 5592
1965 6188
1965 6446
1965 7530
1965 7568
1965 8074
1965 9421
1966 1995
1966 2951
1966 2997
1966 3215
1966 3701
1966 5191
1966 5192
1966 6288
1966 6557
1966 7888
1966 8257
1966 8929
1966 9494
1966 9991
1967 2944
1967 4725
1967 5455
1968 2445
1968 2828
1968 3149
1968 3544
1968 3606
1968 4357
1968 4545
1968 5033
1968 5887
1968 6466
1968 6765
1968 7655
1968 9161
1969 3641
1969 4128
1969 5299
1969 6786
1969 6986
1969 7622
1969 7965
1969 9837
1970 2758
1970 3393
1970 3665
1970 4741
1970 5616
1970 5969
1970 6490
1970 7268
1970 7997
1970 8329
1970 8853
1970 9162
1970 9876
1971 2681
1971 2996
1971 3772
1971 3899
1971 4087
1971 4123
1971 4662
1971 5222
1971 5315
1971 6655
1971 6771
1971 7002
1971 9629
1972 2068
1972 3866
1972 7423
1972 7513
1972 8534
1972 9518
1973 2442
1973 2522
1973 4017
1973 5254
1973 6658
1973 7931
1973 8796
1974 2559
1974 3326
1974 3587
1974 5466
1974 7968
1974 8070
1974 8303
1974 9383
1974 9657
1975 1991
1975 2157
1975 2318
1975 2725
1975 2858
1975 2977
1975 3305
1975 3465
1975 4233
1975 5679
1975 6536
1975 8493
1975 8936
1976 3269
1976 3448
1976 5296
1976 5557
1976 5664
1976 5776
1976 7474
1976 7674
1976 7688
1976 8480
1976 8776
1976 9169
1976 9606
1977 3036
1977 3191
1977 3635
1977 4581
1977 4718
1977 4829
1977 6083
1977 7158
1977 7175
1977 7860
1977 8079
1977 8132
1977 9178
1978 2324
1978 2513
1978 2527
1978 2878
1978 3518
1978 3626
1978 3642
1978 3761
1978 3914
1978 4570
1978 5257
1978 6260
1978 7434
1978 7532
1978 7783
1978 7938
1978 9914
1978 9967
1979 2758
1979 3561
1979 3627
1979 5257
1979 5449
1979 6153
1979 6358
1979 7580
1979 7884
1979 8644
1980 2507
1980 2923
1980 2951
1980 3089
1980 3878
1980 3959
1980 4802
1980 5393
1980 5540
1980 5744
1980 5822
1980 5900
1980 6021
1980 6024
1980 7374
1980 7539
1980 7995
1980 8294
1980 9178
1980 9212
1981 2031
1981 3082
1981 3274
1981 3469
1981 3659
1981 5024
1981 5479
1981 5925
1981 7180
1981 7870
1982 2000
1982 3028
1982 3672
1982 4434
1982 5111
1982 5328
1982 5745
1982 6723
1982 8150
1982 9438
1982 9492
1982 9878
1983 2018
1983 2487
1983 2913
1983 3303
1983 3654
1983 3845
1983 7038
1983 7390
1984 2381
1984 2608
1984 3063
1984 3408
1984 3825
1984 5268
1984 5689
1984 7174
1984 9655
1984 9778
1985 2034
1985 2145
1985 3476
1985 9732
1986 2879
1986 5034
1986 5174
1986 9414
1987 2099
1987 2739
1987 3077
1987 3233
1987 3236
1987 4261
1987 4608
1987 8542
1987 9008
1987 9954
1988 2300
1988 3416
1988 3561
1988 3934
1988 4287
1988 7639
1988 8835
1988 8885
1989 2348
1989 2631
1989 2915
1989 3272
1989 3276
1989 6924
1989 7178
1989 8396
1989 8626
1989 8706
1990 2319
1990 2801
1990 2904
1990 3216
1990 3733
1990 6049
1990 6136
1990 6770
1990 7462
1990 8923
1991 2162
1991 2740
1991 2876
1991 3189
1991 4003
1991 4297
1991 5049
1991 5068
1991 5512
1991 6311
1991 9226
1992 2074
1992 2581
1992 2910
1992 2924
1992 3268
1992 3876
1992 4076
1992 4790
1992 6464
1992 6646
1992 7477
1992 8576
1992 9249
1992 3231
1993 2399
1993 2770
1993 3232
1993 3621
1993 3640
1993 3897
1993 4020
1993 4288
1993 5775
1993 5960
1993 6451
1993 8392
1993 8724
1993 8762
1993 8791
1993 8916
1993 9006
1994 2010
1994 2055
1994 4556
1994 5288
1994 6779
1994 7568
1994 9429
1995 3230
1995 3552
1995 3725
1995 5021
1995 5234
1995 5367
1995 6827
1995 7674
1995 7768
1995 8174
1996 3042
1996 4647
1996 5754
1996 7750
1996 8850
1997 2000
1997 2086
1997 2103
1997 2612
1997 4156
1997 4607
1997 6047
1997 6859
1997 7204
1997 7337
1997 7573
1997 7586
1997 7634
1997 7729
1997 7920
1997 9149
1997 9317
1997 9535
1997 9943
1998 2136
1998 2232
1998 3599
1998 3605
1998 3728
1998 3960
1998 4330
1998 4461
1998 4511
1998 4873
1998 7164
1998 7960
1998 8656
1998 8955
1999 2635
1999 2844
1999 2965
1999 3500
1999 3508
1999 3765
1999 6455
1999 6658
1999 7897
1999 9340
2000 2396
2000 3071
2000 3104
2000 3206
2000 3215
2000 3706
2000 4060
2000 5518
2000 6141
2000 7933
2000 8718
2000 9559
2000 9841
2001 2488
2001 3120
2001 3368
2001 3411
2001 5559
2001 6556
2001 6807
2001 8907
2001 9077
2002 2312
2002 2920
2002 2978
2002 3198
2002 3473
2002 5473
2002 5478
2002 5784
2002 8565
2002 8836
2002 9626
2003 2544
2003 3170
2003 3343
2003 3596
2003 4004
2003 6380
2004 2109
2004 2477
2004 3027
2004 4236
2004 5029
2004 5097
2004 5170
2004 6176
2004 6464
2004 6821
2004 7386
2004 8049
2004 8217
2004 8694
2004 9368
2004 9440
2004 9466
2005 2511
2005 3414
2005 4323
2005 5321
2005 5844
2005 6324
2005 7557
2005 7652
2005 8306
2005 8573
2005 8762
2005 8878
2006 2465
2006 2473
2006 2980
2006 3031
2006 3151
2006 5263
2006 6746
2006 7755
2006 8184
2006 8200
2006 8371
2006 9111
2007 2052
2007 2422
2007 2535
2007 2945
2007 3039
2007 4654
2007 5533
2007 6099
2007 6428
2007 6629
2007 6726
2007 6807
2007 6887
2007 7633
2008 2019
2008 2422
2008 2866
2008 5415
2008 5609
2008 5629
2008 6186
2008 6822
2008 7656
2008 9679
2009 2878
2009 3243
2009 5125
2009 7943
2009 8706
2010 2142
2010 2148
2010 2336
2010 2462
2010 2541
2010 2562
2010 2780
2010 3037
2010 3211
2010 3538
2010 3542
2010 3910
2010 4074
2010 4300
2010 4351
2010 4451
2010 5119
2010 5506
2010 5653
2010 6187
2010 6497
2010 6982
2010 7669
2010 8499
2010 8650
2010 9027
2010 9326
2011 2404
2011 2881
2011 3508
2011 3783
2011 4327
2011 4707
2011 4825
2011 5402
2011 5534
2011 6948
2011 8314
2011 9698
2012 2098
2012 2584
2012 3373
2012 3443
2012 3597
2012 3831
2012 4507
2012 5161
2012 6906
2012 7364
2012 7792
2012 9218
2013 2472
2013 3026
2013 3643
2013 3658
2013 3874
2013 4103
2013 4231
2013 5222
2013 5733
2013 5902
2013 5962
2013 6314
2013 6317
2013 6628
2013 8987
2013 9216
2013 9374
2013 9795
2014 2163
2014 2463
2014 2758
2014 3552
2014 4073
2014 4242
2014 6088
2014 6273
2014 6612
2014 8031
2014 8132
2014 9477
2015 2026
2015 2108
2015 2278
2015 2444
2015 3673
2015 3776
2015 3949
2015 4096
2015 4531
2015 4766
2015 4865
2015 5458
2015 5550
2015 5830
2015 7582
2015 7815
2015 7972
2015 9554
2016 2664
2016 3118
2016 3652
2016 5177
2016 5246
2016 5355
2016 6080
2016 6757
2016 7680
2016 9245
2017 2739
2017 4772
2017 5912
2017 6436
2017 6701
2017 6802
2017 7058
2017 7227
2017 8872
2017 9066
2017 9703
2017 9739
2018 2465
2018 4461
2018 4578
2018 4786
2018 5263
2018 5636
2018 5682
2018 7421
2018 8025
2018 9897
2019 2186
2019 2193
2019 2359
2019 3240
2019 3607
2019 4270
2019 4680
2019 5026
2019 6833
2019 8793
2019 9181
2019 9314
2020 2078
2020 2180
2020 2475
2020 2574
2020 3215
2020 3300
2020 3467
2020 3509
2020 3549
2020 3820
2020 3895
2020 4327
2020 4386
2020 4676
2020 5058
2020 5151
2020 6129
2020 6335
2020 6337
2020 6614
2020 6812
2020 7099
2020 7265
2020 7854
2020 9005
2020 9708
2021 3146
2021 4184
2021 4433
2021 5859
2021 6180
2021 7303
2021 8548
2021 8995
2021 9090
2021 9594
2022 2121
2022 2434
2022 2826
2022 3072
2022 3112
2022 3286
2022 3480
2022 3718
2022 5059
2022 5850
2022 5964
2022 7153
2022 8161
2022 8217
2022 9920
2023 2789
2023 2831
2023 3506
2023 4608
2023 5216
2023 6293
2023 6664
2023 7246
2024 2094
2024 2203
2024 2758
2024 3966
2024 4483
2024 5339
2024 5941
2024 6063
2024 6292
2024 6311
2024 6326
2024 6670
2024 7035
2024 8533
2024 8597
2025 2151
2025 2230
2025 2275
2025 2401
2025 2407
2025 2925
2025 3134
2025 3341
2025 4160
2025 4436
2025 4514
2025 5685
2025 6164
2025 6172
2025 6867
2025 7395
2025 8677
2025 9055
2025 9828
2026 2804
2026 5026
2026 5286
2027 2073
2027 2739
2027 2836
2027 2854
2027 4559
2027 5253
2027 5637
2027 6286
2028 2125
2028 2587
2028 2603
2028 3524
2028 4757
2028 5341
2028 6353
2028 7573
2028 8038
2028 8553
2028 9936
2029 4816
2029 5602
2029 5643
2029 6540
2029 6733
2029 6986
2029 7239
2029 8360
2029 8424
2030 2486
2030 3360
2030 3493
2030 3579
2030 4570
2030 4755
2030 5129
2030 5218
2030 5993
2030 6998
2030 7545
2030 7823
2030 9167
2030 9218
2031 2606
2031 2843
2031 2885
2031 3035
2031 4413
2031 6165
2031 6627
2031 6775
2031 8826
2032 2436
2032 2489
2032 2756
2032 2798
2032 2849
2032 2972
2032 3268
2032 3461
2032 4314
2032 4536
2032 5927
2032 6479
2032 7258
2032 7542
2032 8129
2032 8636
2032 8951
2033 2272
2033 2933
2033 5466
2033 7571
2033 7783
2033 9708
2034 2363
2034 2830
2034 3077
2034 3083
2034 3447
2034 4726
2034 4842
2034 7036
2034 7137
2034 7963
2034 8849
2034 9604
2034 9790
2035 2752
2035 3748
2035 4349
2035 5041
2035 5424
2035 6664
2035 6845
2035 8848
2035 8993
2035 9750
2036 2178
2036 3841
2036 4090
2036 4364
2036 6493
2036 7025
2036 9104
2036 9132
2036 9367
2037 2499
2037 3797
2037 4672
2037 5588
2037 5636
2037 5787
2037 5838
2037 5852
2037 6231
2037 6395
2037 6414
2037 7100
2037 7266
2037 8575
2037 9354
2038 2791
2038 2912
2038 2926
2038 3611
2038 3798
2038 4004
2038 4651
2038 5223
2038 5838
2038 6338
2038 6440
2038 6765
2038 7455
2038 8526
2038 8658
2038 9009
2039 2071
2039 2122
2039 2436
2039 3346
2039 3353
2039 3401
2039 3625
2039 3626
2039 3709
2039 3792
2039 4707
2039 4722
2039 7420
2039 9100
2039 9721
2040 2615
2040 2641
2040 2691
2040 2749
2040 2803
2040 2861
2040 3570
2040 3592
2040 3634
2040 3691
2040 3988
2040 4144
2040 5948
2040 6424
2040 6790
2040 6822
2040 7909
2040 8810
2040 9674
2041 2314
2041 2694
2041 3444
2041 4478
2041 4810
2041 5486
2041 6491
2041 6540
2041 7705
2041 7734
2041 9487
2041 9967
2042 2376
2042 3183
2042 3602
2042 3873
2042 4474
2042 4887
2042 5010
2042 5026
2042 7279
2042 7957
2043 3265
2043 3315
2043 4016
2043 4347
2043 5362
2043 5591
2043 5717
2043 6243
2043 8726
2044 2268
2044 3012
2044 3405
2044 3433
2044 4910
2044 4964
2044 5466
2044 6115
2044 6186
2044 6433
2044 6604
2044 6921
2044 7500
2044 8618
2044 8680
2044 9146
2045 4348
2045 5482
2045 6673
2045 8453
2045 9646
2045 9847
2045 9962
2046 2379
2046 3388
2046 3928
2046 4065
2046 4610
2046 6716
2046 7078
2047 2232
2047 2592
2047 3155
2047 4188
2047 4296
2047 4368
2047 5076
2047 5492
2047 5671
2047 5962
2047 6826
2047 8402
2047 8726
2047 9206
2047 9280
2048 2761
2048 3024
2048 3726
2048 4186
2048 4211
2048 4366
2048 4908
2048 5755
2048 7784
2048 8012
2048 8626
2048 9790
2049 2177
2049 2350
2049 2451
2049 3483
2049 6851
2049 7276
2049 8614
2049 8773
2050 2323
2050 2374
2050 2595
2050 3050
2050 4327
2050 4506
2050 5888
2050 5952
2050 9475
2051 3292
2051 4323
2051 5373
2051 8017
2052 2567
2052 2744
2052 4338
2052 4671
2052 5288
2052 5579
2052 6291
2052 6560
2052 7810
2052 7933
2052 7984
2052 8684
2052 8957
2053 2056
2053 2802
2053 3709
2053 3793
2053 4074
2053 4103
2053 4604
2053 5024
2053 6385
2053 6660
2053 7177
2053 8023
2053 8839
2053 9195
2053 9248
2054 2086
2054 4841
2054 5652
2054 5987
2054 6209
2054 6302
2054 7362
2054 7762
2054 9165
2055 3058
2055 3882
2055 3982
2055 4291
2055 4506
2055 5401
2055 5873
2055 7893
2055 8596
2055 9749
2056 3052
2056 4622
2056 4885
2056 5584
2056 5682
2056 6875
2056 7413
2056 7624
2056 8980
2056 9138
2056 9576
2056 9921
2057 2860
2057 2874
2057 4307
2057 5050
2057 6131
2057 6738
2057 7858
2057 8218
2057 8578
2058 2304
2058 2833
2058 3166
2058 3566
2058 3792
2058 4497
2058 4534
2058 6041
2058 6553
2058 7957
2058 8820
2058 9393
2059 2607
2059 3888
2059 5756
2059 6849
2059 6919
2059 6979
2059 7613
2059 7645
2060 2811
2060 3898
2060 4447
2060 5308
2060 5353
2060 7290
2060 7864
2060 8213
2060 8429
2060 8491
2060 8772
2060 9065
2061 2370
2061 3950
2061 5287
2061 6049
2061 8773
2061 9181
2061 9719
2062 3371
2062 3420
2062 3721
2062 3934
2062 4353
2062 4972
2062 5763
2062 6845
2062 7665
2062 7692
2062 9233
2062 9423
2063 2573
2063 3094
2063 3428
2063 3954
2063 4070
2063 4291
2063 4470
2063 5005
2063 5086
2063 5525
2063 5892
2063 6661
2063 9565
2063 9750
2064 3056
2064 3097
2064 3802
2064 4645
2064 4719
2064 5273
2064 6137
2064 6468
2064 6767
2064 6791
2064 8204
2064 8485
2064 8609
2064 8790
2064 9299
2064 9723
2065 2306
2065 2488
2065 3571
2065 5452
2065 5945
2065 6297
2065 6559
2065 8563
2065 8836
2066 2090
2066 2286
2066 3054
2066 3566
2066 4020
2066 5638
2066 8076
2066 8231
2067 2407
2067 2551
2067 2895
2067 3000
2067 3034
2067 3298
2067 3318
2067 3438
2067 3572
2067 3682
2067 3804
2067 3970
2067 4342
2067 4457
2067 5625
2067 6480
2067 6733
2067 7480
2067 7620
2067 8161
2067 9171
2067 9201
2067 9870
2067 9974
2067 9975
2068 2487
2068 2643
2068 2772
2068 2918
2068 3058
2068 3419
2068 5745
2068 6320
2068 6622
2068 8698
2068 8819
2069 7702
2069 9817
2070 2265
2070 2430
2070 5133
2070 5364
2070 5396
2070 5575
2070 5639
2070 6818
2070 7624
2070 7898
2070 8089
2070 8364
2070 9423
2071 2480
2071 2660
2071 2869
2071 2926
2071 2950
2071 4065
2071 4367
2071 5199
2071 6000
2071 6407
2071 6684
2071 7022
2071 7345
2071 8652
2071 9601
2072 2764
2072 3375
2072 3939
2072 4500
2072 5188
2072 5341
2072 5573
2072 9250
2073 2907
2073 3300
2073 4636
2073 5335
2073 6122
2073 9173
2073 9187
2073 9191
2074 2947
2074 2987
2074 3205
2074 3801
2074 4394
2074 4484
2074 6367
2074 9584
2075 2175
2075 2676
2075 3614
2075 4261
2075 4360
2075 7012
2075 7362
2075 8035
2075 8419
2075 9687
2076 3706
2076 6421
2076 6912
2076 7471
2076 7618
2076 7670
2076 8629
2076 9165
2076 9798
2077 2141
2077 2237
2077 2380
2077 2506
2077 2646
2077 3491
2077 4400
2077 4506
2077 4710
2077 5118
2077 5156
2077 6124
2077 7303
2077 7407
2077 7934
2077 8096
2077 8238
2077 8355
2077 8884
2078 2222
2078 2363
2078 2857
2078 3133
2078 4022
2078 4442
2078 5452
2078 5479
2078 6778
2078 7073
2078 8216
2078 9741
2079 3063
2079 3755
2079 5289
2079 5834
2079 6521
2079 6567
2080 3205
2080 3671
2080 4365
2080 5201
2080 5556
2080 5715
2080 6172
2080 7535
2080 9930
2081 3096
2081 3780
2081 3872
2081 3971
2081 4371
2081 4964
2081 5393
2081 5763
2081 8087
2082 2190
2082 3798
2082 4259
2082 5209
2082 5998
2082 6843
2082 7194
2082 8241
2083 2284
2083 2561
2083 3179
2083 4605
2083 4651
2083 5104
2083 5419
2083 6000
2083 6525
2083 7101
2083 7201
2083 7283
2083 7611
2083 8830
2083 8964
2084 4201
2084 5393
2084 7266
2084 7288
2084 7464
2084 9609
2085 2189
2085 4367
2085 5273
2085 5486
2085 5677
2085 7083
2085 7214
2085 7318
2085 8040
2085 8425
2085 8553
2086 2268
2086 2272
2086 2571
2086 2683
2086 3118
2086 3163
2086 3289
2086 3501
2086 3744
2086 4948
2086 5861
2086 6016
2086 6746
2086 7944
2086 8115
2086 9217
2086 9465
2087 2307
2087 2650
2087 2774
2087 2847
2087 3577
2087 3677
2087 3741
2087 3891
2087 4419
2087 4510
2087 5373
2087 6137
2087 6837
2087 7675
2087 8029
2087 8082
2087 9069
2087 9339
2088 2208
2088 3105
2088 4319
2088 5125
2088 8365
2089 2361
2089 2445
2089 3434
2089 3849
2089 4456
2089 6147
2089 6150
2089 7285
2089 8198
2089 9221
2089 9864
2090 2390
2090 2474
2090 3256
2090 3385
2090 4709
2090 5074
2090 5119
2090 5221
2090 5573
2090 5581
2090 5852
2090 6553
2090 6643
2090 6929
2090 7061
2090 7437
2090 8138
2090 4759
2091 2206
2091 2233
2091 3347
2091 4705
2091 6343
2091 9194
2091 9869
2092 2199
2092 2783
2092 2860
2092 2888
2092 3010
2092 3113
2092 3400
2092 3413
2092 4234
2092 5039
2092 5213
2092 5328
2092 5742
2092 5764
2092 6167
2092 6447
2092 6459
2092 7124
2092 7144
2092 7211
2092 8634
2092 9365
2092 9634
2092 9759
2093 2633
2093 3356
2093 4243
2093 4714
2093 4856
2093 6196
2093 7220
2093 8609
2093 9598
2094 2322
2094 3656
2094 3826
2094 6083
2094 6699
2094 6802
2094 7818
2094 8905
2094 9501
2094 9657
2095 2487
2095 2777
2095 3487
2095 3498
2095 3535
2095 3922
2095 4752
2095 5122
2095 5345
2095 5494
2095 6611
2095 8509
2095 8864
2095 9594
2096 2831
2096 4594
2096 6631
2096 7795
2096 8283
2096 8297
2096 9015
2096 9512
2096 9556
2096 9601
2096 9753
2097 2288
2097 2640
2097 2661
2097 3208
2097 4038
2097 4413
2097 4842
2097 5131
2097 5232
2097 5844
2097 5968
2097 6610
2097 7566
2097 9117
2097 9168
2098 2104
2098 2380
2098 2480
2098 3033
2098 3302
2098 3486
2098 4307
2098 4968
2098 6161
2098 6168
2098 6460
2098 7348
2098 9315
2099 2460
2099 2770
2099 2831
2099 3055
2099 5069
2099 7334
2099 9313
2099 9773
2100 3028
2100 3328
2100 4339
2100 5702
2100 5900
2100 6300
2100 7826
2100 8708
2100 9404
2100 9756
2100 9875
2101 2459
2101 4217
2101 4489
2101 7054
2101 8334
2101 9545
2102 2197
2102 2523
2102 3563
2102 3778
2102 3841
2102 4789
2102 5441
2102 5707
2102 7016
2102 7392
2102 8061
2103 3169
2103 3658
2103 3753
2103 4202
2103 4281
2103 4773
2103 4973
2103 5001
2103 6110
2103 6629
2103 7021
2103 8524
2103 8772
2103 9504
2104 2544
2104 2982
2104 3343
2104 3900
2104 4344
2104 4490
2104 4691
2104 5342
2104 5357
2104 5528
2104 8337
2104 9817
2105 3158
2105 3236
2105 3507
2105 3745
2105 4046
2105 4454
2105 4738
2105 5142
2105 5528
2105 6406
2105 7266
2105 7562
2105 8253
2105 8585
2105 9370
2106 2125
2106 2353
2106 2429
2106 2769
2106 3100
2106 3326
2106 3448
2106 4548
2106 5519
2106 6534
2106 7516
2107 3033
2107 3257
2107 3608
2107 4647
2107 4965
2107 5591
2107 6421
2107 6603
2107 7547
2107 8420
2107 8776
2107 8958
2107 9613
2108 3345
2108 3845
2108 4712
2108 4816
2108 4844
2108 5720
2108 5901
2108 6227
2108 6392
2108 6580
2108 7230
2108 7421
2108 8121
2108 8467
2108 8473
2108 8689
2108 8807
2108 9695
2109 2234
2109 3998
2109 5788
2109 7628
2109 8307
2109 8919
2110 2224
2110 2940
2110 5061
2110 5254
2110 8393
2111 3042
2111 3210
2111 3395
2111 3505
2111 3698
2111 5237
2111 5678
2111 6353
2111 9376
2111 9914
2112 2423
2112 3148
2112 3320
2112 3442
2112 3747
2112 4074
2112 4823
2112 4875
2112 5129
2112 5178
2112 5196
2112 5936
2112 6080
2112 6085
2112 6086
2112 6168
2112 7760
2112 8202
2112 8469
2112 8564
2113 2124
2113 2896
2113 3182
2113 3545
2113 4054
2113 4421
2113 4743
2113 4876
2113 5447
2113 5854
2113 5970
2113 6491
2113 7321
2113 7363
2113 7552
2113 8344
2113 8654
2114 2160
2114 2455
2114 2826
2114 2900
2114 2968
2114 3135
2114 3193
2114 3288
2114 3309
2114 3782
2114 4125
2114 5119
2114 5130
2114 5183
2114 5406
2114 5642
2114 5918
2114 6283
2114 6482
2114 6527
2114 6785
2114 6891
2114 7228
2114 7928
2114 8303
2114 8631
2114 9093
2114 9221
2114 9332
2114 9337
2115 3841
2115 5761
2115 5967
2115 7333
2115 8911
2115 9447
2115 9558
2116 2797
2116 2962
2116 3006
2116 3025
2116 3276
2116 3879
2116 4081
2116 4129
2116 4286
2116 4646
2116 5309
2116 5742
2116 8159
2116 8584
2116 9238
2116 9257
2117 2483
2117 2587
2117 4612
2117 5226
2117 5379
2117 6759
2117 7813
2117 8119
2117 8311
2117 8348
2117 9129
2118 2727
2118 3065
2118 5169
2118 5866
2118 5930
2118 7201
2118 7292
2119 2274
2119 4065
2119 4551
2119 5178
2119 5900
2119 6079
2119 7628
2119 8126
2119 8369
2119 8396
2119 8731
2120 2280
2120 2483
2120 3596
2120 4601
2120 4987
2120 6783
2120 6958
2120 7110
2120 7204
2120 7286
2120 7475
2120 8922
2121 2744
2121 2889
2121 3397
2121 3766
2121 5815
2121 6120
2121 6458
2121 6731
2121 6880
2121 7633
2121 9974
2122 2358
2122 3532
2122 3533
2122 4547
2122 6221
2122 6609
2122 7911
2122 7926
2122 8255
2122 8268
2123 2204
2123 2435
2123 2503
2123 2756
2123 2807
2123 3368
2123 4929
2123 4987
2123 5374
2123 6328
2123 8297
2123 9761
2124 3357
2124 3436
2124 3458
2124 3524
2124 3639
2124 4929
2124 5138
2124 5398
2124 5437
2124 6015
2124 6178
2124 6261
2124 7298
2124 8198
2124 8429
2124 9293
2125 2338
2125 2345
2125 2591
2125 2993
2125 3494
2125 4943
2125 6680
2125 7725
2125 7881
2125 8433
2125 9490
2126 2440
2126 3701
2126 4223
2126 4847
2126 4882
2126 5614
2126 6985
2126 7233
2126 7625
2126 8101
2127 2453
2127 2555
2127 3617
2127 4429
2127 4735
2127 4957
2127 4972
2127 5356
2127 5420
2127 5940
2127 6228
2127 6876
2127 7682
2127 7698
2127 7960
2127 8635
2127 8829
2127 9281
2127 9662
2128 2143
2128 2415
2128 2913
2128 3835
2128 5279
2128 5340
2128 6315
2128 6560
2128 6869
2128 7067
2128 7130
2128 7623
2128 7661
2128 7970
2128 8173
2128 8639
2128 9175
2128 9821
2128 9848
2129 2856
2129 3357
2129 4661
2129 4716
2129 6413
2129 7555
2129 8025
2129 9204
2130 2319
2130 2376
2130 4654
2130 4732
2130 4740
2130 4868
2130 5133
2130 5652
2130 7214
2130 7340
2130 8334
2130 9336
2130 9604
2131 2511
2131 2814
2131 3468
2131 5237
2131 5311
2131 5614
2131 5946
2131 7223
2131 7727
2131 8818
2131 9036
2132 2365
2132 6689
2132 7758
2132 8200
2133 2342
2133 3080
2133 3823
2133 6640
2133 7706
2133 9988
2134 3382
2134 3465
2134 3627
2134 3663
2134 3896
2134 6732
2134 7899
2134 8507
2134 8525
2134 9067
2134 9507
2135 2217
2135 2379
2135 2693
2135 3130
2135 3695
2135 3775
2135 4436
2135 4880
2135 5239
2135 5361
2135 5696
2135 8247
2136 2346
2136 2867
2136 2891
2136 2893
2136 2894
2136 3664
2136 4035
2136 4265
2136 4409
2136 4901
2136 5264
2136 6401
2136 6594
2136 7485
2136 8078
2136 8124
2136 8193
2136 8939
2136 9025
2136 9867
2136 9981
2137 2945
2137 6861
2137 7226
2137 7732
2138 3448
2138 3943
2138 4054
2138 5997
2138 6853
2138 7792
2138 8137
2138 8712
2139 2224
2139 4271
2139 6123
2139 6425
2139 6811
2139 8136
2140 2173
2140 3097
2140 3784
2140 4016
2140 4269
2140 4657
2140 6972
2140 7666
2140 7740
2140 8788
2140 9515
2141 2341
2141 2539
2141 2849
2141 3129
2141 3996
2141 4339
2141 4583
2141 5050
2141 6489
2141 7407
2141 7886
2141 8290
2141 8407
2142 2212
2142 3000
2142 3283
2142 3531
2142 4271
2142 4337
2142 4433
2142 5121
2142 5584
2142 6026
2142 6430
2142 7218
2142 7459
2142 7763
2142 8772
2142 9833
2143 2413
2143 4008
2143 4141
2143 4195
2143 4913
2143 5053
2143 5460
2143 6077
2143 6386
2143 6544
2143 7602
2143 7906
2144 2608
2144 3080
2144 3956
2144 4726
2144 5654
2144 6602
2144 9928
2145 2311
2145 2816
2145 2974
2145 4214
2145 4440
2145 4936
2145 4996
2145 5531
2145 7617
2145 8575
2146 2374
2146 2378
2146 2886
2146 3623
2146 3893
2146 4501
2146 5342
2146 5501
2146 5532
2146 6493
2146 6663
2146 6812
2146 6935
2146 6967
2146 7031
2146 7872
2146 7875
2146 8061
2146 8172
2146 8249
2146 9735
2146 9796
2147 2584
2147 2709
2147 2885
2147 5327
2147 6079
2147 6471
2147 6555
2147 7928
2147 8139
2147 8778
2147 9849
2148 2715
2148 2973
2148 3701
2148 4148
2148 4681
2148 4754
2148 5086
2148 7361
2148 8215
2148 8527
2149 5110
2149 5362
2149 5642
2149 6352
2149 6775
2149 9629
2149 9770
2150 3367
2150 3664
2150 4608
2150 5198
2150 6443
2150 8053
2150 8955
2150 9345
2151 2253
2151 2505
2151 4194
2151 4597
2151 5654
2151 6281
2151 6338
2151 9449
2151 9955
2152 2278
2152 3222
2152 3300
2152 4066
2152 4290
2152 4513
2152 4567
2152 5243
2152 6445
2152 7427
2153 2481
2153 5015
2153 5881
2153 6344
2153 7671
2153 8982
2154 2321
2154 3192
2154 3537
2154 3764
2154 4185
2154 6766
2154 6950
2154 8169
2155 2305
2155 2648
2155 3699
2155 4152
2155 4312
2155 4515
2155 5034
2155 6178
2155 7545
2155 7680
2155 8038
2155 8468
2155 8721
2155 9352
2156 2583
2156 2600
2156 2650
2156 2786
2156 3204
2156 3473
2156 3610
2156 4927
2156 5145
2156 5207
2156 6211
2156 6319
2156 8112
2156 8179
2156 8894
2156 9212
2156 9720
2156 9900
2157 4617
2157 4818
2157 5233
2157 5506
2157 5547
2157 5880
2157 5921
2157 6079
2157 6411
2157 6823
2157 6966
2157 7504
2157 7827
2157 8076
2158 3172
2158 3241
2158 3499
2158 4127
2158 4194
2158 4260
2158 4405
2158 4824
2158 5443
2158 6419
2158 7086
2158 7235
2158 7725
2158 7814
2158 7938
2158 8483
2158 8848
2158 9170
2158 9256
2159 2184
2159 2318
2159 2364
2159 2411
2159 3213
2159 4689
2159 4913
2159 6382
2159 8898
2159 9104
2160 3040
2160 3591
2160 4457
2160 5017
2160 5166
2160 5715
2160 5786
2160 5805
2160 6543
2160 7255
2160 8250
2160 8264
2160 9088
2160 9102
2161 2192
2161 2549
2161 2898
2161 3612
2161 3789
2161 3861
2161 3873
2161 4156
2161 4186
2161 4391
2161 4423
2161 4933
2161 5923
2161 6600
2161 6607
2161 7604
2161 8119
2161 8518
2161 9364
2161 9567
2161 9807
2161 9866
2162 2251
2162 2551
2162 3588
2162 3781
2162 5193
2162 6034
2162 6180
2162 9467
2163 2878
2163 3007
2163 3047
2163 3170
2163 3440
2163 3533
2163 4800
2163 5176
2163 5507
2163 6845
2163 9771
2164 2864
2164 3209
2164 3336
2164 3558
2164 5326
2164 5437
2164 5447
2164 5504
2164 5832
2164 5923
2164 6044
2164 6746
2164 6922
2164 7080
2164 7737
2164 8200
2165 2340
2165 2445
2165 2931
2165 3034
2165 4798
2165 5600
2165 5675
2165 5952
2165 6505
2165 9373
2166 2850
2166 2885
2166 2928
2166 3075
2166 3641
2166 5204
2166 7055
2166 7215
2166 8361
2166 8572
2167 2461
2167 2780
2167 2800
2167 3520
2167 3523
2167 3735
2167 4590
2167 6187
2167 6569
2167 6939
2167 7143
2167 7212
2167 9598
2167 9842
2168 3432
2168 3795
2168 3859
2168 4057
2168 4254
2168 5565
2168 5917
2168 7621
2168 8052
2168 8081
2168 8128
2169 2793
2169 2796
2169 2818
2169 3360
2169 3729
2169 4446
2169 4677
2169 4795
2169 5462
2169 6206
2169 6402
2169 7947
2169 8223
2169 9501
2170 3167
2170 3804
2170 3836
2170 4161
2170 4194
2170 4868
2170 5685
2170 9012
2171 2370
2171 2856
2171 3422
2171 3796
2171 4166
2171 6010
2171 7210
2172 2367
2172 2471
2172 2564
2172 2919
2172 4014
2172 4685
2172 5160
2172 5266
2172 5442
2172 5457
2172 5573
2172 7121
2172 7423
2172 7576
2172 7742
2172 7762
2172 8055
2173 2296
2173 2543
2173 3315
2173 4828
2173 5088
2173 5259
2173 5782
2173 5930
2173 6389
2173 6425
2173 6758
2173 6970
2173 6984
2173 7858
2173 8086
2173 8100
2173 8614
2173 9110
2174 2427
2174 3246
2174 3369
2174 3500
2174 3887
2174 4188
2174 5066
2174 5298
2174 6398
2174 7012
2174 9304
2174 9359
2175 2531
2175 3468
2175 3519
2175 4056
2175 4969
2175 6261
2175 6328
2175 6929
2175 7142
2175 8346
2176 3379
2176 3859
2176 3880
2176 4139
2176 4360
2176 5536
2176 7259
2176 7296
2176 9407
2177 2286
2177 2947
2177 3882
2177 5984
2177 6089
2177 6157
2177 7357
2177 7480
2177 8340
2177 8836
2177 8844
2177 9021
2177 9640
2177 9970
2178 2426
2178 2790
2178 2863
2178 2998
2178 3088
2178 3092
2178 3154
2178 3212
2178 3768
2178 4164
2178 4222
2178 4249
2178 4615
2178 4768
2178 5461
2178 5623
2178 6033
2178 6207
2178 6728
2178 6887
2178 6950
2178 7166
2178 7346
2178 7366
2178 7499
2178 7501
2178 8868
2178 8920
2179 2282
2179 2631
2179 3883
2179 4029
2179 4563
2179 5828
2179 5878
2179 6136
2179 7236
2179 7612
2179 8277
2179 8793
2180 2304
2180 2657
2180 3393
2180 3787
2180 4654
2180 4666
2180 4907
2180 5347
2180 6537
2180 7067
2180 7705
2180 8459
2180 8645
2180 9064
2180 9977
2181 2456
2181 3070
2181 3526
2181 3775
2181 3783
2181 5210
2181 5471
2181 5554
2181 6297
2181 6564
2181 7271
2181 7621
2181 8454
2181 8926
2181 9222
2181 9438
2183 2848
2183 2853
2183 3218
2183 3222
2183 5487
2183 6189
2183 7672
2183 9744
2184 2783
2184 4353
2184 4817
2184 5688
2184 5946
2184 5960
2184 8683
2184 9949
2185 2258
2185 2368
2185 3764
2186 2605
2186 3592
2186 4984
2186 5547
2186 5904
2186 5912
2186 6072
2186 6925
2186 7171
2186 8010
2186 8495
2187 2710
2187 3717
2187 5292
2187 5527
2187 6267
2187 6745
2187 8751
2187 8925
2188 2450
2188 2504
2188 2505
2188 2841
2188 3145
2188 3182
2188 3236
2188 3244
2188 3624
2188 4042
2188 4159
2188 4253
2188 4580
2188 5594
2188 6372
2188 7790
2188 8323
2188 9327
2189 2508
2189 3310
2189 4160
2189 5000
2189 7616
2189 9024
2190 2321
2190 2644
2190 2776
2190 2935
2190 2972
2190 3016
2190 3543
2190 4117
2190 5543
2190 6424
2190 7584
2190 8196
2190 8778
2190 8970
2190 9089
2190 9357
2190 9718
2191 2824
2191 3188
2191 3434
2191 3861
2191 3932
2191 4497
2191 4814
2191 4850
2191 5476
2191 5673
2191 5871
2191 5977
2191 6013
2191 6044
2191 6167
2191 7431
2191 7473
2191 7489
2191 8273
2192 2266
2192 2769
2192 2943
2192 3342
2192 3555
2192 3801
2192 4248
2192 4544
2192 5556
2192 5780
2192 6012
2192 7189
2192 7775
2192 8728
2192 9268
2192 9286
2192 9632
2192 9750
2193 2274
2193 2690
2193 2913
2193 3668
2193 6217
2193 7849
2193 8816
2194 2326
2194 2374
2194 2499
2194 3604
2194 7170
2194 9062
2195 3233
2195 3484
2195 4573
2195 6488
2195 7255
2195 7563
2195 8039
2195 9186
2196 2610
2196 3419
2196 3540
2196 3652
2196 4427
2196 4622
2196 5250
2196 5383
2196 5385
2196 5562
2196 5721
2196 5972
2196 7515
2196 7830
2196 8450
2196 9571
2196 9787
2197 2335
2197 3101
2197 3245
2197 3301
2197 3760
2197 3973
2197 4644
2197 5847
2197 5988
2197 6209
2197 7554
2197 8379
2197 8471
2198 3027
2198 3063
2198 3750
2198 4330
2198 5240
2198 5776
2198 6213
2198 7533
2199 4131
2199 4782
2199 5394
2199 5475
2199 6482
2199 6880
2199 7042
2199 7402
2199 8178
2199 9336
2199 9600
2199 9949
2200 2519
2200 3478
2200 3640
2200 4100
2200 4918
2200 6092
2200 6348
2200 6905
2200 8454
2200 9624
2200 9950
2201 2453
2201 2553
2201 2689
2201 3526
2201 4135
2201 4249
2201 5104
2201 5384
2201 5483
2201 5993
2201 6666
2201 6851
2201 7061
2201 7342
2201 7579
2201 8731
2201 9383
2201 9804
2201 9979
2202 2687
2202 3336
2202 4790
2202 4859
2202 5805
2202 6510
2202 6670
2202 8753
2203 2212
2203 2382
2203 3531
2203 4821
2203 4857
2203 5445
2203 5772
2203 6257
2203 6632
2203 7484
2203 9391
2204 5953
2204 6471
2204 7079
2205 2210
2205 3153
2205 3286
2205 3376
2205 3925
2205 3976
2205 5686
2205 5975
2205 6372
2205 7125
2205 7588
2205 7708
2205 9956
2206 2362
2206 2421
2206 2752
2206 4315
2207 2410
2207 2605
2207 2831
2207 3946
2207 4209
2207 4862
2207 4914
2207 5176
2207 5447
2207 5593
2207 5723
2207 5790
2207 5912
2207 6501
2207 8121
2207 8218
2207 9271
2207 9407
2208 2239
2208 2293
2208 4771
2208 8870
2209 2889
2209 3199
2209 4108
2209 4125
2209 4258
2209 5599
2209 5614
2209 5851
2209 6014
2209 7126
2209 7431
2209 9735
2210 4280
2210 6313
2210 6362
2210 6815
2210 7623
2210 9028
2211 2813
2211 3347
2211 3857
2211 4956
2211 5013
2211 9055
2211 9335
2212 2930
2212 3184
2212 4384
2212 6720
2212 8354
2212 9439
2213 2861
2213 3338
2213 3553
2213 3590
2213 4329
2213 4681
2213 4989
2213 6474
2213 7842
2213 8294
2213 9237
2214 2837
2214 3382
2214 4067
2214 4095
2214 4170
2214 4810
2214 5323
2214 6651
2214 7509
2214 7851
2214 8991
2215 2306
2215 2473
2215 2740
2215 3826
2215 4155
2215 4344
2215 4361
2215 4467
2215 6173
2215 6829
2215 8647
2215 9820
2216 2322
2216 2591
2216 2982
2216 3463
2216 5575
2216 6153
2216 7839
2216 7990
2216 8829
2216 9553
2216 9810
2217 2458
2217 2686
2217 2948
2217 3171
2217 3244
2217 4259
2217 4297
2217 4942
2217 5043
2217 5077
2217 5169
2217 5593
2217 5706
2217 6486
2217 7033
2217 7149
2217 7877
2217 8360
2217 8990
2217 9316
2217 9714
2218 2274
2218 3689
2218 3981
2218 5323
2218 5857
2218 7066
2218 7801
2218 7999
2218 8055
2218 9551
2218 9603
2219 2392
2219 2607
2219 3373
2219 3814
2219 3818
2219 4286
2219 4734
2219 5133
2219 5208
2219 5622
2219 5659
2219 5924
2219 6562
2219 8265
2219 8815
2220 4196
2220 4277
2220 5078
2220 5628
2220 6223
2220 6368
2220 6819
2220 7385
2220 7430
2220 9879
2221 2378
2221 5295
2221 5541
2221 7310
2221 7670
2221 7849
2221 8080
2221 8686
2222 3140
2222 3259
2222 3439
2222 3683
2222 3910
2222 3924
2222 3927
2222 5441
2222 5564
2222 5874
2222 6880
2222 7103
2222 7127
2222 7151
2222 7613
2222 7849
2222 7857
2222 8337
2222 9056
2222 9500
2222 9890
2223 2484
2223 3265
2223 4745
2223 5660
2223 9036
2224 3344
2224 3876
2224 3939
2224 4279
2224 5130
2224 5586
2224 5588
2224 6509
2224 6864
2224 7580
2224 9120
2224 9474
2225 2828
2225 2835
2225 3076
2225 3579
2225 3596
2225 3684
2225 4409
2225 5894
2225 8385
2225 8678
2225 9077
2226 2571
2226 3127
2226 5240
2226 5387
2226 5544
2226 6424
2226 6818
2226 7985
2226 8037
2226 9245
2226 9280
2226 9309
2227 2288
2227 2683
2227 3033
2227 3412
2227 4214
2227 4429
2227 4965
2227 4984
2227 5416
2227 6029
2227 6185
2227 6207
2227 6358
2227 6395
2227 8341
2227 8729
2227 9029
2228 2609
2228 2666
2228 3871
2228 4157
2228 6655
2228 7482
2228 8153
2228 8802
2228 8900
2228 9653
2229 3463
2229 3529
2229 4022
2229 5005
2229 6458
2229 7565
2230 2358
2230 3285
2230 3598
2230 3933
2230 5093
2230 5525
2230 5631
2230 8292
2230 9511
2231 3732
2231 4170
2231 4743
2231 6118
2231 6724
2231 7304
2231 7932
2231 8569
2231 8695
2231 9904
2231 9955
2232 2290
2232 2485
2232 2846
2232 3012
2232 4210
2232 5553
2232 5693
2232 7058
2232 7318
2232 7950
2232 8082
2232 8903
2232 9390
2232 9445
2232 9799
2233 2732
2234 2932
2234 4055
2234 4542
2234 4568
2234 5933
2234 6143
2234 6913
2234 8405
2234 8783
2234 9015
2234 9026
2235 2322
2235 2396
2235 2712
2235 3053
2235 3150
2235 3515
2235 3881
2235 4479
2235 4587
2235 5777
2235 6101
2235 7315
2235 8694
2235 8770
2235 8874
2235 9066
2235 9275
2236 2924
2236 3170
2236 3306
2236 3401
2236 3937
2236 4214
2236 4551
2236 5223
2236 6108
2236 6839
2236 8268
2236 9577
2236 9655
2236 9897
2237 3314
2237 3363
2237 4694
2237 4869
2237 7104
2237 7162
2237 8531
2238 2282
2238 3563
2238 3800
2238 3810
2238 3918
2238 4089
2238 4423
2238 4711
2238 5243
2238 5799
2238 6188
2238 6757
2238 7251
2238 9061
2238 9119
2239 2253
2239 2862
2239 3459
2239 4053
2239 4921
2239 6432
2239 6811
2239 7361
2239 7986
2239 8220
2239 9455
2240 2926
2240 3232
2240 3660
2240 4426
2240 6107
2240 7763
2240 7911
2240 9684
2241 2243
2241 4275
2241 4281
2241 4306
2241 5949
2241 8107
2241 8222
2242 3047
2242 3076
2242 4409
2242 4621
2242 5680
2242 6144
2242 7218
2242 7733
2242 9490
2243 3295
2243 3328
2243 4037
2243 5709
2243 8157
2243 8566
2243 9278
2243 9418
2244 2268
2244 2344
2244 2471
2244 2872
2244 3184
2244 3324
2244 3617
2244 4005
2244 4228
2244 4606
2244 6158
2244 6427
2244 6454
2244 7961
2244 9869
2244 9966
2245 2690
2245 4727
2245 5640
2245 6215
2245 6535
2245 6593
2245 7792
2245 8309
2245 8368
2246 2269
2246 2312
2246 2690
2246 2970
2246 3179
2246 4138
2246 4871
2246 5085
2246 7209
2246 7226
2246 7762
2246 9068
2246 9413
2246 9450
2246 9457
2246 9506
2247 2352
2247 2567
2247 2753
2247 3608
2247 5053
2247 5241
2247 5803
2247 6350
2247 6414
2247 7127
2247 7514
2247 7515
2247 7858
2247 8962
2247 9639
2248 2715
2248 3694
2248 3829
2248 3902
2248 4054
2248 4336
2248 4659
2248 4732
2248 5351
2248 6824
2248 6925
2248 7810
2249 3434
2249 4752
2249 7553
2250 2311
2250 2537
2250 4881
2250 6146
2250 6351
2250 9697
2251 3689
2251 4631
2251 6909
2251 7123
2251 7784
2251 8294
2251 8538
2252 2918
2252 3015
2252 3271
2252 3382
2252 3635
2252 3883
2252 5216
2252 5319
2252 7552
2252 8597
2252 9044
2252 9790
2253 2512
2253 3677
2253 5160
2253 5433
2253 9815
2254 2440
2254 2793
2254 3002
2254 3295
2254 3348
2254 4619
2254 5230
2254 5508
2254 6485
2254 6759
2254 8151
2254 8336
2254 8731
2254 9713
2254 9799
2255 2363
2255 2858
2255 3119
2255 3573
2255 3825
2255 3856
2255 5692
2255 5726
2255 5816
2255 6510
2255 7168
2255 8927
2255 9251
2255 9774
2256 2491
2256 3189
2256 3530
2256 3948
2256 3976
2256 5551
2256 5777
2256 5852
2256 6955
2256 8398
2256 8769
2257 2279
2257 2491
2257 2975
2257 4684
2257 5393
2257 9206
2258 2338
2258 2621
2258 3466
2258 4454
2258 4476
2258 4811
2258 5250
2258 6955
2258 9865
2258 9979
2259 2643
2259 3125
2259 3153
2259 3531
2259 3567
2259 3745
2259 3885
2259 3895
2259 4154
2259 4396
2259 4694
2259 4806
2259 5022
2259 6391
2259 6447
2259 6968
2259 8552
2259 9220
2260 3378
2260 3483
2260 3827
2260 5949
2260 6706
2260 6755
2260 7530
2260 8506
2260 9322
2260 9524
2260 9792
2261 2323
2261 4455
2261 5393
2261 5623
2261 5741
2261 8477
2261 8671
2262 2593
2262 3499
2262 4038
2262 4650
2262 8664
2262 8809
2262 8899
2262 9040
2263 6258
2263 6264
2263 7610
2263 8180
2263 9269
2264 2431
2264 2908
2264 3383
2264 3559
2264 5154
2264 5574
2264 6247
2264 6699
2264 6852
2264 9868
2264 9916
2264 9988
2265 2434
2265 2527
2265 3156
2265 3725
2265 5945
2265 7469
2265 9727
2266 2637
2266 2975
2266 4737
2266 4891
2266 5626
2266 6588
2266 7029
2266 8483
2266 9406
2267 3421
2267 4748
2267 5341
2267 6470
2267 7242
2267 7416
2267 8364
2268 3364
2268 3804
2268 4300
2268 4779
2268 5055
2268 5513
2268 5654
2268 7150
2268 7330
2268 7362
2268 7888
2268 8024
2268 8108
2268 8739
2268 8789
2269 5827
2269 7245
2269 8954
2270 2674
2270 3313
2270 3897
2270 3917
2270 4369
2270 4583
2270 4971
2270 5694
2270 5935
2270 6267
2270 6503
2270 6507
2270 7088
2270 8176
2270 8414
2270 8941
2270 9208
2271 2299
2271 2463
2271 2559
2271 2682
2271 2969
2271 3268
2271 3432
2271 3581
2271 5795
2271 6399
2271 6537
2271 6638
2271 6781
2271 7058
2271 8015
2271 8289
2271 8448
2271 9063
2271 9236
2271 9681
2271 9754
2271 9849
2272 3073
2272 3513
2272 3667
2272 3924
2272 4611
2272 4843
2272 5317
2272 5436
2272 5996
2272 6821
2272 7971
2272 8483
2273 2361
2273 3297
2273 3570
2273 3599
2273 3856
2273 3982
2273 3992
2273 4047
2273 5578
2273 5957
2273 6894
2273 6940
2273 7182
2273 8259
2273 9372
2273 9913
2274 2354
2274 2767
2274 3174
2274 5195
2274 5321
2274 6037
2274 6072
2274 6851
2274 6991
2274 7157
2274 7199
2274 7606
2274 8322
2274 9578
2274 9667
2274 9827
2275 2342
2275 2530
2275 3139
2275 4480
2275 4806
2275 5377
2275 6474
2275 6858
2275 7401
2275 7890
2275 8424
2275 8444
2275 8645
2275 8861
2276 2906
2276 4670
2276 6216
2276 6554
2276 6571
2276 6739
2276 7872
2276 8930
2276 9129
2277 2574
2277 2609
2277 2920
2277 3402
2277 3621
2277 4097
2277 4776
2277 7896
2277 8163
2277 9766
2278 2348
2278 2441
2278 2771
2278 2811
2278 2842
2278 3335
2278 3401
2278 3853
2278 4307
2278 5006
2278 5153
2278 5249
2278 5794
2278 5953
2278 7097
2278 7372
2278 9010
2278 9725
2279 4301
2279 4343
2279 4541
2279 4937
2279 4979
2279 5148
2279 5917
2279 6922
2279 7718
2279 8234
2279 8530
2279 8734
2279 9228
2279 9836
2280 2380
2280 4309
2280 4472
2280 8914
2280 9779
2281 2353
2281 3681
2281 4159
2281 4484
2281 4649
2281 4695
2281 4730
2281 5769
2281 6765
2281 6849
2281 6872
2281 7843
2281 8410
2281 9890
2282 2435
2282 2787
2282 2830
2282 3659
2282 4064
2282 4111
2282 4410
2282 4572
2282 6885
2282 7027
2282 7169
2282 7499
2282 8703
2282 9186
2282 9898
2283 2591
2283 2719
2283 3451
2283 3879
2283 6829
2283 9401
2284 2293
2284 2349
2284 5507
2284 6162
2284 6485
2284 7241
2284 7824
2284 8312
2285 2436
2285 2594
2285 2757
2285 2832
2285 4932
2285 5325
2285 5837
2285 6775
2285 7947
2285 8040
2286 2482
2286 2694
2286 2792
2286 3457
2286 3669
2286 3920
2286 4313
2286 6361
2286 6505
2286 8567
2286 9062
2287 2573
2287 2754
2287 2908
2287 3521
2287 3646
2287 4657
2287 4666
2287 4684
2287 5517
2287 5975
2287 6284
2287 9992
2288 2308
2288 2322
2288 2379
2288 2840
2288 3139
2288 3199
2288 3716
2288 3750
2288 4038
2288 4468
2288 4530
2288 4821
2288 4841
2288 4957
2288 5130
2288 7335
2288 8665
2288 9556
2288 9781
2289 2408
2289 2820
2289 3125
2289 3441
2289 3998
2289 4338
2289 4418
2289 5113
2289 5309
2289 5372
2289 5537
2289 5773
2289 6038
2289 7483
2289 8470
2290 3005
2290 3403
2290 3727
2290 3839
2290 6069
2290 7016
2290 9490
2291 2829
2291 3042
2291 6397
2291 6577
2291 7578
2291 8518
2291 9495
2291 9794
2292 2567
2292 3127
2292 3131
2292 4671
2292 4900
2292 5027
2292 5636
2292 6054
2292 6332
2292 6421
2292 6496
2292 7551
2292 7839
2292 9811
2292 9890
2293 2434
2293 2691
2293 5200
2293 5727
2293 5873
2293 5916
2293 6032
2293 6511
2293 8079
2293 8131
2293 8549
2294 2890
2294 3206
2294 3337
2294 3785
2294 4632
2294 5431
2294 7353
2294 7668
2294 7744
2294 8141
2294 8944
2295 2472
2295 2821
2295 3008
2295 3330
2295 3349
2295 3601
2295 4031
2295 4267
2295 4597
2295 5661
2295 5785
2295 6221
2295 6898
2295 7992
2295 8880
2296 2920
2296 3008
2296 3166
2296 3249
2296 3761
2296 4426
2296 5840
2296 5965
2296 6551
2296 8663
2296 8850
2296 9317
2297 2931
2297 3983
2297 4458
2297 5203
2297 5599
2297 6119
2297 6275
2297 6568
2297 7252
2297 8077
2297 8295
2297 9209
2297 9531
2298 2868
2298 2885
2298 3498
2298 3843
2298 4181
2298 4549
2298 5006
2298 5995
2298 6667
2298 7079
2298 7705
2298 8269
2299 2655
2299 3162
2299 4118
2299 5403
2299 6241
2299 7222
2299 7294
2299 7310
2299 7373
2299 7611
2299 7845
2299 8324
2299 9704
2300 2388
2300 2957
2300 3003
2300 3101
2300 3559
2300 4206
2300 4409
2300 4925
2300 5472
2300 5836
2300 6567
2300 7334
2300 8224
2300 8599
2300 8661
2301 2353
2301 2953
2301 5174
2301 6838
2301 7736
2302 3162
2302 3332
2302 3687
2302 3776
2302 4237
2302 5214
2302 6300
2302 7233
2302 7323
2302 7800
2302 8323
2302 8511
2302 9690
2302 9761
2303 2464
2303 2936
2303 3279
2303 3814
2303 3973
2303 4564
2303 4593
2303 5713
2303 7481
2303 9710
2304 2345
2304 2479
2304 4716
2304 5024
2304 5885
2304 5918
2304 6508
2304 6618
2304 8320
2305 3472
2305 4539
2305 5434
2305 5545
2305 6609
2305 7258
2305 7940
2305 9238
2305 9756
2306 2825
2306 6554
2306 6929
2306 8581
2306 8775
2306 9790
2307 2642
2307 2765
2307 3716
2307 3937
2307 3954
2307 4964
2307 5227
2307 7280
2307 7356
2307 8132
2307 6117
2308 2484
2308 2515
2308 3080
2308 3124
2308 3470
2308 3481
2308 4405
2308 4960
2308 5434
2308 6749
2308 7362
2308 8848
2308 8882
2308 9448
2308 9578
2309 3201
2309 3360
2309 4001
2309 4844
2309 4950
2309 5917
2309 6057
2309 6992
2309 9291
2310 2786
2310 2997
2310 3446
2310 3608
2310 3684
2310 5459
2310 5797
2311 2838
2311 4766
2311 4862
2311 5001
2311 5513
2311 5563
2311 6134
2311 6363
2311 7122
2311 8515
2311 8785
2312 2694
2312 4207
2312 4213
2312 5696
2312 5865
2312 6595
2313 2611
2313 2762
2313 2935
2313 3447
2313 3674
2313 3921
2313 6316
2313 7619
2313 7926
2313 9906
2314 3089
2314 3513
2314 3680
2314 4245
2314 4557
2314 4881
2314 5432
2314 6403
2314 7155
2314 7519
2314 8062
2314 8202
2314 9759
2315 2655
2315 4466
2315 4979
2315 5260
2315 5389
2315 6165
2315 7013
2315 8022
2315 8039
2315 8503
2315 9275
2315 9453
2316 3000
2316 4768
2316 6543
2316 6868
2316 7452
2316 9308
2316 9509
2316 9610
2317 2538
2317 2560
2317 2866
2317 3867
2317 4836
2317 8518
2318 3233
2318 3316
2318 3676
2318 3887
2318 4088
2318 4159
2318 4305
2318 4967
2318 5053
2318 6139
2318 9524
2319 3996
2319 4013
2319 5256
2319 5878
2319 6033
2319 6089
2319 7687
2319 8371
2319 8375
2319 8721
2319 9629
2319 9866
2320 2767
2320 3092
2320 3101
2320 3379
2320 3782
2320 4146
2320 4196
2320 4614
2320 5393
2320 5436
2320 6901
2320 7160
2320 7349
2320 7426
2320 8109
2320 8597
2320 8714
2320 8728
2320 9164
2320 9774
2321 3202
2321 3790
2321 6626
2321 6697
2321 8063
2321 9478
2321 9902
2322 2408
2322 3653
2322 4817
2322 4887
2322 5211
2322 6283
2322 7255
2322 8096
2322 8338
2322 8354
2322 8606
2322 8900
2322 9057
2322 9113
2323 2359
2323 2679
2323 2726
2323 2810
2323 2996
2323 4029
2323 4917
2323 4923
2323 4994
2323 6774
2323 7697
2324 2327
2324 2637
2324 2716
2324 2969
2324 3070
2324 3089
2324 3370
2324 3374
2324 3409
2324 3677
2324 4088
2324 4147
2324 4170
2324 4180
2324 4542
2324 4955
2324 5053
2324 5060
2324 5075
2324 5460
2324 5552
2324 6143
2324 6194
2324 6551
2324 6645
2324 7116
2324 7377
2324 7750
2324 7916
2324 7920
2324 8313
2325 3137
2325 4717
2325 6837
2325 8304
2325 9985
2326 2406
2326 3008
2326 3106
2326 3164
2326 3764
2326 4028
2326 5692
2326 5797
2326 6405
2326 7567
2326 9307
2326 9464
2326 9531
2327 2585
2327 3712
2327 3848
2327 3870
2327 4453
2327 5984
2327 6369
2327 6498
2327 7051
2327 7375
2327 7399
2327 7923
2327 8225
2327 9816
2327 9989
2328 3215
2328 3629
2328 4023
2328 4707
2328 5016
2328 5081
2328 6552
2328 6728
2328 6740
2328 6971
2328 8072
2328 9555
2328 9834
2329 3369
2329 4600
2329 4878
2329 5621
2329 5635
2329 7049
2329 7802
2329 9743
2330 2479
2330 2670
2330 2772
2330 3119
2330 3281
2330 3478
2330 4244
2330 4359
2330 4653
2330 4847
2330 5182
2330 5298
2330 5555
2330 6360
2330 6735
2330 6775
2330 7518
2330 7955
2330 7987
2330 8085
2330 8112
2330 8114
2330 8222
2330 8386
2330 8562
2330 8939
2330 8979
2331 5145
2331 7196
2331 7205
2331 7530
2331 8512
2331 8716
2332 2537
2332 3520
2332 4313
2332 4879
2332 5881
2332 6119
2332 7514
2332 8161
2332 9637
2333 2350
2333 2973
2333 3492
2333 4230
2333 4476
2333 4832
2333 7409
2333 9729
2334 2890
2334 3260
2334 3480
2334 4011
2334 5470
2334 5725
2334 6403
2334 6842
2334 8517
2335 2402
2335 2470
2335 5247
2335 5761
2335 7008
2335 9376
2336 2880
2336 4154
2336 4656
2336 5231
2336 5291
2336 5421
2336 6564
2336 7581
2336 7634
2336 9268
2337 3192
2337 3244
2337 6352
2337 6434
2338 2724
2338 3091
2338 3498
2338 4437
2338 5123
2338 5595
2338 5760
2338 6752
2338 9554
2339 2384
2339 3078
2339 3631
2339 3848
2339 4073
2339 4314
2339 4455
2339 5431
2339 5928
2339 6098
2339 6646
2339 6932
2339 7667
2339 7895
2339 8040
2339 8680
2339 9384
2339 9683
2340 2456
2340 4015
2340 4170
2340 5406
2340 7689
2340 8572
2340 9244
2341 3175
2341 4213
2341 4819
2341 5269
2341 5549
2341 6475
2341 6666
2341 7831
2341 8265
2341 8417
2341 8448
2341 9758
2342 2916
2342 3352
2342 3427
2342 3681
2342 3728
2342 4077
2342 4484
2342 4513
2342 5872
2342 6089
2342 7520
2342 9540
2342 9667
2342 9719
2343 3060
2343 3927
2343 4172
2343 4397
2343 5178
2343 5416
2343 6183
2343 7665
2343 8071
2343 9864
2344 2798
2344 3319
2344 4025
2344 4216
2344 5129
2344 6171
2344 6261
2344 6491
2344 7796
2344 8076
2345 2520
2345 4420
2345 4734
2345 5731
2345 7127
2345 9394
2345 9500
2345 9740
2346 3321
2346 3986
2346 4598
2346 4780
2346 4794
2346 7040
2346 7183
2346 7538
2347 2965
2347 5805
2347 7847
2347 9541
2347 9652
2348 4778
2348 4852
2348 6762
2348 7617
2349 6689
2349 7085
2349 7277
2349 7908
2350 2620
2350 2623
2350 2698
2350 4035
2350 6548
2350 7257
2350 7659
2350 7862
2350 7951
2350 8136
2350 8474
2350 9942
2351 2557
2351 2587
2351 3476
2351 3496
2351 3665
2351 4032
2351 4331
2351 4968
2351 6302
2351 7797
2351 8403
2351 9522
2352 3383
2352 4277
2352 4383
2352 7258
2352 7455
2352 7761
2352 7973
2352 8327
2353 2648
2353 2677
2353 3067
2353 3614
2353 5123
2353 5277
2353 5414
2353 6483
2353 9559
2353 9731
2354 3279
2354 4434
2354 5266
2354 6278
2354 6926
2354 6980
2354 8087
2354 8917
2354 9940
2355 3380
2355 3668
2355 4805
2355 6601
2355 9127
2356 2484
2356 2636
2356 3918
2356 5107
2356 6189
2356 6560
2356 6990
2356 8460
2357 2376
2357 2776
2357 3045
2357 4146
2357 4633
2357 4644
2357 4699
2357 5747
2357 6772
2357 7259
2357 9846
2358 2424
2358 2871
2358 2915
2358 3044
2358 3525
2358 3559
2358 3757
2358 3995
2358 4216
2358 4310
2358 4716
2358 4823
2358 5527
2358 6955
2358 8180
2358 8208
2358 9903
2359 2516
2359 3510
2359 4657
2359 5849
2359 6096
2359 6450
2360 2362
2360 2581
2360 3773
2360 4944
2360 6403
2360 7094
2361 2425
2361 2781
2361 4177
2361 5345
2361 6258
2361 6637
2361 6663
2361 6944
2361 7433
2361 7726
2361 8013
2362 2840
2362 3279
2362 3398
2362 3754
2362 4311
2362 4498
2362 5706
2362 6572
2362 6861
2362 6986
2362 7148
2362 8771
2362 9896
2362 9956
2363 2912
2363 2949
2363 3657
2363 3952
2363 4701
2363 5419
2363 5742
2363 5936
2363 5995
2363 7709
2363 8339
2363 9318
2364 3000
2364 3183
2364 4038
2364 4293
2364 6212
2364 9680
2365 3103
2365 3697
2365 5073
2365 5094
2365 5281
2365 5915
2365 6778
2365 9951
2366 2652
2366 2858
2366 3968
2366 5259
2366 5327
2366 6331
2366 6469
2366 6621
2366 6635
2366 7188
2366 7242
2366 8170
2366 8291
2366 8945
2367 5019
2367 5325
2367 5689
2367 7449
2367 7984
2367 8893
2367 9895
2368 2768
2368 2924
2368 3278
2368 3554
2368 3606
2368 4003
2368 4071
2368 4416
2368 4962
2368 5306
2368 5945
2368 6478
2368 6534
2368 6615
2368 6643
2368 8605
2368 9532
2369 2451
2369 2502
2369 2549
2369 2608
2369 3166
2369 3228
2369 3261
2369 3984
2369 4902
2369 5055
2369 5947
2369 6122
2369 6983
2369 7221
2369 8962
2369 9593
2370 2371
2370 3247
2370 3726
2370 4521
2370 5141
2370 5192
2370 5989
2370 6267
2370 7995
2370 9735
2371 5247
2371 5401
2371 5523
2371 6226
2371 9356
2372 2505
2372 2637
2372 3187
2372 3507
2372 4048
2372 4293
2372 4751
2372 4949
2372 6151
2372 8297
2372 8484
2373 3944
2373 4372
2373 4973
2373 6109
2373 6434
2373 8331
2373 8518
2373 9865
2374 3041
2374 3629
2374 3731
2374 5095
2374 6608
2374 7962
2374 8021
2374 9481
2375 2552
2375 2717
2375 2754
2375 3122
2375 3500
2375 3832
2375 3965
2375 4051
2375 4123
2375 4546
2375 4554
2375 5092
2375 5106
2375 6090
2375 7226
2375 7526
2375 7575
2375 7819
2375 8403
2375 8428
2375 9433
2376 2426
2376 2902
2376 3299
2376 3710
2376 4159
2376 4235
2376 5453
2376 6282
2376 7517
2376 7686
2376 8302
2376 8464
2376 8547
2376 8946
2377 2763
2377 3044
2377 5207
2377 5730
2377 6196
2377 6714
2377 8629
2377 9426
2377 9512
2378 2399
2378 2925
2378 3256
2378 3853
2378 4093
2378 5344
2378 5504
2378 5639
2378 6037
2378 6530
2378 9542
2379 4063
2379 4101
2379 4144
2379 4703
2379 5194
2379 5200
2379 5527
2379 7372
2379 7723
2379 8269
2379 8397
2379 8969
2380 2399
2380 2404
2380 2555
2380 7705
2380 7774
2380 9322
2381 2453
2381 3368
2381 3644
2381 4107
2381 4462
2381 5368
2381 5590
2381 7389
2381 7687
2381 7805
2381 8419
2381 8779
2381 8970
2381 9164
2381 9240
2381 9758
2381 9853
2382 2584
2382 3595
2382 3608
2382 4243
2382 4608
2382 4872
2382 5056
2382 7093
2382 7314
2382 8858
2383 2885
2383 3220
2383 4979
2383 5216
2383 5693
2383 6537
2383 6934
2384 2432
2384 2847
2384 2982
2384 3439
2384 3601
2384 3902
2384 4154
2384 5314
2384 5450
2384 6611
2384 7144
2384 7193
2384 7502
2384 8574
2384 9274
2384 9751
2385 4613
2385 5526
2385 7501
2385 7843
2385 8347
2386 3246
2386 3989
2386 3990
2386 4484
2386 6612
2386 7807
2386 7985
2386 9516
2387 3086
2387 3741
2387 3992
2387 4048
2387 4669
2387 4766
2387 5029
2387 5142
2387 7772
2387 7811
2387 8895
2388 2984
2388 3105
2388 5614
2388 6792
2388 7418
2388 9505
2389 2669
2389 3231
2389 4231
2389 4246
2389 4443
2389 5857
2389 6157
2389 7943
2389 8266
2389 9827
2389 9902
2390 3960
2390 5916
2390 7374
2390 8933
2390 9938
2390 9996
2391 2620
2391 3415
2391 3764
2391 6057
2391 6083
2391 7327
2391 8278
2392 3096
2392 3280
2392 5315
2392 5705
2392 8830
2393 4446
2393 5433
2393 5546
2393 6651
2393 8189
2393 8824
2394 2816
2394 2833
2394 3796
2394 4134
2394 4555
2394 5042
2394 5779
2394 6255
2394 7405
2394 7647
2394 8366
2394 8657
2394 8892
2394 8976
2394 9020
2395 4107
2395 4166
2395 4884
2395 5769
2395 6400
2395 7526
2395 7865
2395 7930
2396 2478
2396 3190
2396 3573
2396 4164
2396 4376
2396 4424
2396 4853
2396 5033
2396 6052
2396 7429
2397 2514
2397 2726
2397 3121
2397 3970
2397 4987
2397 5305
2397 5793
2397 5991
2397 6122
2397 9115
2397 9809
2398 2531
2398 2911
2398 2993
2398 3334
2398 3782
2398 3840
2398 4490
2398 4864
2398 5462
2398 5582
2398 6168
2398 6557
2398 7315
2398 7777
2398 9810
2399 2783
2399 3499
2399 3670
2399 3808
2399 4409
2399 4934
2399 5829
2399 7316
2399 7475
2399 7905
2399 8554
2399 8984
2399 9496
2400 2427
2400 3073
2400 3331
2400 3757
2400 3964
2400 4657
2400 5038
2400 5107
2400 5230
2400 5442
2400 5908
2400 6395
2400 6480
2400 6597
2400 7608
2400 7895
2400 7948
2400 9363
2400 9848
2401 2418
2401 3371
2401 3636
2401 4218
2401 6431
2401 6781
2401 7792
2401 7942
2401 8661
2401 8712
2401 9282
2402 2589
2402 3023
2402 4154
2402 4325
2402 5679
2402 7741
2402 8455
2402 9270
2403 2649
2403 3218
2403 3556
2403 3731
2403 4084
2403 4398
2403 4636
2403 5685
2403 6884
2403 9065
2404 3298
2404 3684
2404 4784
2404 4853
2404 8571
2404 8758
2404 9146
2404 9739
2405 2477
2405 2543
2405 2822
2405 2887
2405 3349
2405 4364
2405 4760
2405 5991
2405 8712
2405 9273
2405 9745
2406 2917
2406 3187
2406 4006
2406 4850
2406 4851
2406 5919
2406 7789
2406 7809
2406 8164
2406 8554
2407 2523
2407 2576
2407 2903
2407 5605
2407 5986
2407 6215
2407 6686
2407 8068
2407 8101
2407 8141
2407 8158
2407 8567
2407 8743
2408 5993
2408 6351
2408 7243
2408 9165
2409 2580
2409 3463
2409 4858
2409 5114
2409 6514
2409 7452
2409 7588
2409 8239
2409 8322
2409 8618
2410 4079
2410 5110
2410 6736
2410 6850
2410 7554
2411 3149
2411 3497
2411 4498
2411 4567
2411 5320
2411 5486
2411 5754
2412 3333
2412 5982
2412 6694
2412 6750
2412 8628
2412 9103
2412 9809
2413 7729
2413 8351
2414 2810
2414 3284
2414 3898
2414 4778
2414 5351
2414 7217
2414 8201
2414 9084
2415 4347
2415 4526
2415 4581
2415 6566
2415 6637
2416 2484
2416 3577
2416 4305
2416 4358
2416 5028
2416 5111
2416 6123
2416 6271
2416 6296
2416 7015
2416 7160
2416 7329
2416 8333
2416 9084
2416 9670
2416 9775
2416 9797
2417 2423
2417 2880
2417 4426
2417 4934
2417 9239
2417 9978
2418 3117
2418 3528
2418 6241
2418 6554
2418 7743
2418 8918
2419 2467
2419 2589
2419 2648
2419 2962
2419 3689
2419 3719
2419 3831
2419 3921
2419 4175
2419 5311
2419 5793
2419 7051
2419 8142
2419 8159
2419 9301
2419 9625
2420 3445
2420 3896
2420 3916
2420 4169
2420 5047
2420 5091
2420 5839
2420 6352
2420 6912
2420 9353
2421 2440
2421 2773
2421 3103
2421 3568
2421 3781
2421 3896
2421 3999
2421 5265
2421 5282
2421 6409
2421 6915
2421 7331
2421 7952
2421 8601
2421 9014
2422 2479
2422 3093
2422 3804
2422 3855
2422 5212
2422 5356
2422 6495
2422 8602
2422 9038
2422 9279
2423 2911
2423 3250
2423 3879
2423 4225
2423 4266
2423 4464
2423 5337
2423 7492
2423 7615
2423 7682
2424 2500
2424 2616
2424 4990
2424 7405
2424 8582
2424 9385
2424 9594
2425 2478
2425 2879
2425 4234
2425 4586
2425 4957
2425 5771
2425 6252
2425 8507
2425 9665
2426 2468
2426 2839
2426 3297
2426 4368
2426 4621
2426 7462
2426 7853
2426 8044
2426 8708
2427 2549
2427 2723
2427 3040
2427 3694
2427 6330
2427 6567
2427 6763
2427 7747
2427 8339
2427 9393
2428 2488
2428 2707
2428 2740
2428 3796
2428 4472
2428 5107
2428 5297
2428 6240
2428 6820
2428 7736
2428 7778
2428 8269
2428 8410
2429 2917
2429 4983
2429 6405
2430 2778
2430 3358
2430 5279
2430 6793
2430 9286
2431 3986
2431 4252
2431 5728
2431 6151
2431 6939
2431 7415
2431 8243
2431 9419
2431 9503
2432 3810
2432 4270
2432 4493
2432 5039
2432 6030
2432 6227
2432 6939
2432 8553
2433 2779
2433 3074
2433 3213
2433 3934
2433 5020
2433 6185
2433 7182
2433 7497
2433 7638
2433 8758
2433 9003
2434 2440
2434 2627
2434 3279
2434 3503
2434 5045
2434 5616
2434 8039
2434 8684
2434 9417
2435 5478
2435 5595
2435 6506
2435 6684
2435 7369
2435 8058
2435 8392
2435 8500
2435 8905
2435 9627
2436 3549
2436 4465
2436 5728
2436 5999
2436 6637
2436 7855
2436 8272
2437 3140
2437 3311
2437 3807
2437 4093
2437 4369
2437 4888
2437 5080
2437 5341
2437 5455
2437 6069
2437 6965
2437 7929
2437 8468
2437 8880
2437 9424
2438 2771
2438 2886
2438 3326
2438 3885
2438 4033
2438 4219
2438 4443
2438 5537
2438 5994
2438 6213
2438 6322
2438 7213
2438 7276
2438 7403
2438 8344
2438 9236
2438 9504
2438 9540
2439 2738
2439 3475
2439 3527
2439 3547
2439 4311
2439 4333
2439 4462
2439 4978
2439 5523
2439 6110
2439 6806
2439 7237
2439 9329
2439 9613
2440 2766
2440 3454
2440 6228
2440 6484
2440 7630
2440 7763
2441 2626
2441 2687
2441 3392
2441 4333
2441 5190
2441 5390
2441 5411
2441 5443
2441 7881
2442 3681
2442 3688
2442 3975
2442 4130
2442 6700
2442 7934
2443 3197
2443 3666
2443 5014
2443 6117
2443 6712
2443 6941
2443 7190
2443 7262
2443 7692
2443 7801
2443 9086
2443 9203
2444 3091
2444 3096
2444 3121
2444 3138
2444 3287
2444 3606
2444 4454
2444 4476
2444 5242
2444 5691
2444 6887
2444 6955
2444 7692
2444 8030
2444 8626
2444 8796
2445 2524
2445 3985
2445 4697
2445 5323
2445 6126
2445 7685
2445 7935
2445 8105
2446 2963
2446 3082
2446 4177
2446 4195
2446 4673
2446 4900
2446 5814
2446 6112
2446 6263
2446 6582
2446 6907
2446 8048
2446 9619
2447 2670
2447 2755
2447 3259
2447 3478
2447 3639
2447 3850
2447 3972
2447 4447
2447 4471
2447 5011
2447 5710
2447 6008
2447 6507
2447 7230
2447 7291
2447 7453
2447 9019
2447 9621
2448 2902
2448 4162
2448 4491
2448 9550
2449 2551
2449 3415
2449 3577
2449 3666
2449 3697
2449 3991
2449 4093
2449 4839
2449 4852
2449 5514
2449 8563
2449 9330
2450 3633
2450 4444
2450 4870
2450 6866
2450 7277
2450 7302
2450 8200
2450 9632
2451 2468
2451 2542
2451 3482
2451 3500
2451 3629
2451 3683
2451 4821
2451 8654
2451 9854
2452 3152
2452 4534
2452 5717
2452 6591
2452 6893
2452 7537
2452 8188
2452 8635
2452 9324
2453 3489
2453 3559
2453 3564
2453 4137
2453 4888
2453 5211
2453 6156
2453 6309
2453 6568
2453 7020
2453 7202
2453 9345
2453 9801
2454 2553
2454 2883
2454 2966
2454 4171
2454 8807
2454 9877
2455 2863
2455 3399
2455 3457
2455 3585
2455 4263
2455 4282
2455 4662
2455 4738
2455 5653
2455 7595
2455 9407
2455 9930
2456 2756
2456 3027
2456 4195
2456 4984
2456 7811
2456 8235
2457 2474
2457 2885
2457 3529
2457 4259
2457 4543
2457 4612
2457 4643
2457 4801
2457 4854
2457 5411
2457 5657
2457 5706
2457 6202
2457 6245
2457 6254
2457 6801
2457 7523
2457 7694
2457 7697
2457 8443
2457 9864
2458 4025
2458 5347
2458 6711
2459 2675
2459 3009
2459 3332
2459 3770
2459 3926
2459 4248
2459 4631
2459 5130
2459 5531
2459 5588
2459 5840
2459 6054
2459 7290
2459 7503
2459 7881
2459 8301
2459 9159
2459 9235
2459 9771
2460 3163
2460 5854
2460 6359
2460 6576
2460 6900
2460 7472
2460 8302
2461 2746
2461 3558
2461 3991
2461 4229
2462 2691
2462 2875
2462 2995
2462 3899
2462 4643
2462 6689
2462 9331
2462 9944
2463 2799
2463 4575
2463 4955
2463 7120
2463 8171
2463 8804
2463 9838
2463 9921
2464 2614
2464 3105
2464 3168
2464 3385
2464 3418
2464 3612
2464 4085
2464 4119
2464 4636
2464 4868
2464 4960
2464 6742
2464 6809
2464 7812
2464 8067
2464 8188
2464 8643
2464 9943
2464 9945
2465 2654
2465 3541
2465 4153
2465 7133
2465 7849
2465 8526
2465 9334
2466 2669
2466 2905
2466 3996
2466 4776
2466 4829
2466 6342
2466 6463
2466 6695
2466 7025
2466 7764
2466 7832
2466 9668
2467 2475
2467 2506
2467 3082
2467 3936
2467 3962
2467 4190
2467 4378
2467 6906
2467 8340
2467 8994
2468 3153
2468 3457
2468 3872
2468 5483
2468 6591
2468 6614
2468 7682
2468 8628
2469 2545
2469 2588
2469 2933
2469 3179
2469 3405
2469 4048
2469 4702
2469 4766
2469 5597
2469 5702
2469 5982
2469 6175
2469 6365
2469 6762
2469 6824
2469 7053
2469 7333
2469 8136
2469 9816
2470 3739
2470 5350
2470 5688
2470 7408
2470 7589
2470 7644
2470 9111
2471 2561
2471 2662
2471 2677
2471 3231
2471 4167
2471 5468
2471 6726
2471 6779
2471 6998
2471 7601
2471 9033
2472 2879
2472 3016
2472 3116
2472 3273
2472 4232
2472 4649
2472 5144
2472 5172
2472 5216
2472 5567
2472 7062
2472 7359
2472 7693
2472 8217
2473 3786
2473 3891
2473 6018
2473 6240
2473 7241
2473 8765
2474 3493
2474 3729
2474 5550
2474 7649
2474 9475
2475 2816
2475 3080
2475 3612
2475 4092
2475 4352
2475 4532
2475 6520
2475 6853
2475 7661
2475 7696
2475 8800
2476 3468
2476 3644
2476 3941
2476 4200
2476 5109
2476 6184
2476 6974
2476 7048
2476 7148
2476 7153
2476 7590
2476 8330
2477 3010
2477 4637
2477 6420
2477 6867
2477 8035
2477 9296
2478 3845
2478 3870
2478 4862
2478 6020
2478 6880
2479 3862
2479 4741
2479 7082
2479 7308
2479 8096
2479 8589
2480 3343
2480 3813
2480 4490
2480 4514
2480 4796
2480 4835
2480 6155
2480 6233
2480 6467
2480 6510
2480 7524
2480 9633
2480 9645
2481 3187
2481 5272
2481 5379
2481 5592
2481 5639
2481 5718
2481 5804
2481 9430
2482 2709
2482 3041
2482 3400
2482 3460
2482 3918
2482 4431
2482 4511
2482 4848
2482 5695
2482 7137
2482 7678
2482 8001
2482 9341
2482 9763
2483 2572
2483 2782
2483 3164
2483 3771
2483 4632
2483 5234
2483 5373
2483 5959
2483 5963
2483 7411
2483 7504
2484 3332
2484 3576
2484 3695
2484 4084
2484 4591
2484 4975
2484 5073
2484 5074
2484 5450
2484 5873
2484 6084
2484 6150
2484 7139
2484 7238
2484 7735
2484 8345
2484 8683
2484 9314
2485 2849
2485 4331
2485 4389
2485 5820
2485 6142
2485 6209
2485 7214
2485 7493
2485 7517
2485 9490
2485 9537
2486 3818
2486 4309
2486 5110
2486 6194
2486 7318
2486 9545
2486 9793
2487 2573
2487 3117
2487 3253
2487 4731
2487 6149
2487 6204
2487 6635
2487 6879
2487 8888
2487 9059
2488 5768
2488 6433
2488 6436
2488 6673
2488 7840
2488 8111
2489 3045
2489 3706
2489 3797
2489 3956
2489 4063
2489 4767
2489 4795
2489 5371
2489 6610
2489 7565
2489 8590
2490 2907
2490 3291
2490 3453
2490 3687
2490 4111
2490 4203
2490 4496
2490 4581
2490 4602
2490 7447
2490 7585
2490 8976
2490 9803
2491 2860
2491 3465
2491 3877
2491 5109
2491 5259
2491 6850
2491 8157
2491 8484
2491 8856
2491 3859
2492 2676
2492 2896
2492 3213
2492 4068
2492 4189
2492 4561
2492 5842
2492 5928
2492 6837
2492 9494
2493 2585
2493 3118
2493 3610
2493 4357
2493 5021
2493 5959
2493 7402
2493 7593
2493 8764
2493 9510
2493 9684
2494 3920
2494 4362
2494 5102
2494 6904
2494 7005
2494 7392
2494 8834
2495 2849
2495 2989
2495 3016
2495 3837
2495 3844
2495 5430
2495 6250
2495 6274
2495 7528
2495 8219
2495 8858
2495 9300
2496 2936
2496 3170
2496 5456
2497 2632
2497 3237
2497 6799
2497 7468
2497 7736
2497 8652
2497 8852
2498 2603
2498 2734
2498 3249
2498 3938
2498 4120
2498 4771
2498 4936
2498 4987
2498 5037
2498 5217
2498 5290
2498 5541
2498 6309
2498 6545
2498 6576
2498 7413
2498 7581
2498 7719
2498 8136
2498 8445
2498 8562
2498 8683
2498 9064
2498 9227
2498 9355
2498 9368
2499 2502
2499 3704
2499 4360
2499 4441
2499 4450
2499 7342
2499 7858
2499 8170
2499 9892
2500 5075
2500 6385
2500 8386
2500 9202
2500 9919
2501 2681
2501 2784
2501 2869
2501 3067
2501 3221
2501 3358
2501 3610
2501 3678
2501 5933
2501 8201
2501 8485
2501 9202
2501 9534
2502 3407
2502 5979
2502 6496
2502 6866
2502 7782
2502 8142
2502 8611
2503 2580
2503 2700
2503 2808
2503 2867
2503 3135
2503 3154
2503 3510
2503 3746
2503 4263
2503 5230
2503 5537
2503 5667
2503 7146
2503 7194
2503 7410
2503 7612
2503 9410
2504 2621
2504 3034
2504 3086
2504 3704
2504 4229
2504 4427
2504 4747
2504 5123
2504 5478
2504 6015
2504 8748
2504 9191
2505 2727
2505 2939
2505 3369
2505 4172
2505 5314
2505 6042
2505 6598
2505 6778
2505 7024
2506 2675
2506 2693
2506 3163
2506 3894
2506 4674
2506 5628
2506 6043
2506 7040
2506 8291
2506 8498
2506 8945
2506 9443
2506 9963
2507 3976
2507 3996
2507 4145
2507 5553
2507 7950
2507 9655
2508 2835
2508 3417
2508 3454
2508 3757
2508 4238
2508 5286
2508 6791
2508 8846
2508 9005
2509 3054
2509 3264
2509 3316
2509 3512
2509 4095
2509 4104
2509 4637
2509 5299
2509 8372
2510 3100
2510 3450
2510 3539
2510 3700
2510 4433
2510 5727
2510 6135
2510 7089
2510 7196
2510 7910
2510 8311
2510 8517
2510 9684
2511 2574
2511 2689
2511 4016
2511 5651
2511 8427
2511 8841
2512 4725
2512 5263
2512 5498
2512 6350
2512 6898
2512 7033
2512 8734
2512 8961
2513 2616
2513 2869
2513 3157
2513 3578
2513 4523
2513 6862
2513 9717
2514 2883
2514 3048
2514 3450
2514 3522
2514 4235
2514 6508
2514 6810
2514 7574
2514 8086
2514 8542
2514 8862
2514 9335
2514 9456
2514 9535
2515 2523
2515 3161
2515 3496
2515 4983
2515 6748
2515 6957
2515 7785
2515 9050
2515 9893
2516 2833
2516 7313
2517 2575
2517 4113
2517 4396
2517 4769
2517 5044
2517 5297
2517 5348
2517 6934
2517 7350
2517 8491
2517 8870
2517 9665
2518 2578
2518 5340
2518 5621
2518 9434
2519 3074
2519 3163
2519 3558
2519 4279
2519 5456
2519 6533
2519 7321
2519 7801
2519 9268
2520 3300
2520 4888
2520 5461
2520 5964
2520 6533
2520 7255
2520 8423
2520 9108
2520 9279
2521 2765
2521 3043
2521 3705
2521 4469
2521 7883
2521 8851
2521 9641
2522 2694
2522 3260
2522 3489
2522 3690
2522 5547
2522 6910
2522 7883
2522 8801
2522 8928
2522 9127
2522 9133
2522 9422
2522 9482
2523 2917
2523 3842
2523 4876
2523 5271
2523 5559
2523 9062
2524 2944
2524 3451
2524 3456
2524 4175
2524 4191
2524 4391
2524 4517
2524 4556
2524 5358
2524 5768
2524 7395
2524 8026
2524 8235
2524 8391
2524 8471
2525 4846
2525 5590
2525 7400
2525 8108
2525 8780
2526 2624
2526 2687
2526 2742
2526 4187
2526 4500
2526 5211
2526 6114
2526 6534
2526 6626
2526 7300
2526 7480
2526 7836
2526 8608
2526 9012
2526 9517
2527 3283
2527 4950
2527 5946
2527 7772
2527 7918
2527 8235
2528 2701
2528 2913
2528 2923
2528 3464
2528 4272
2528 4674
2528 5469
2528 5552
2528 5815
2528 5991
2528 6810
2528 7316
2528 8240
2528 8497
2528 8691
2528 8697
2528 8892
2529 2917
2529 4102
2529 4149
2529 4237
2529 4604
2529 5223
2529 5716
2529 5947
2529 6173
2529 6867
2529 7137
2529 8192
2529 9288
2530 5497
2530 5644
2530 8412
2530 8426
2530 8749
2531 4024
2531 4995
2531 5062
2531 5260
2531 5463
2531 6027
2531 7024
2531 8922
2531 9712
2532 3021
2532 3314
2532 4275
2532 4679
2532 4811
2532 5026
2532 5263
2532 5408
2532 5855
2532 6132
2532 6442
2532 7406
2532 8201
2532 8243
2532 8662
2532 8672
2532 9329
2533 3028
2533 6191
2533 6469
2533 8381
2533 8435
2534 2703
2534 3385
2534 3503
2534 6198
2534 7184
2534 7726
2535 3319
2535 3470
2535 3672
2535 4195
2535 4396
2535 5053
2535 5242
2535 6095
2535 6292
2535 6567
2535 6616
2535 8794
2535 8854
2535 9689
2536 2827
2536 2841
2536 3449
2536 4290
2536 4526
2536 4883
2536 5937
2536 6384
2536 6750
2536 6887
2536 6998
2536 8624
2537 3900
2537 4233
2537 4241
2537 4417
2537 5682
2537 5703
2537 6456
2537 7928
2537 8584
2537 8764
2537 9760
2538 2707
2538 2748
2538 2773
2538 2816
2538 3193
2538 3675
2538 7534
2538 7783
2538 8285
2538 9143
2539 2721
2539 2966
2539 4938
2539 6413
2539 6460
2539 8120
2539 9846
2539 9886
2540 2849
2540 3986
2540 5392
2540 7241
2540 7394
2540 7521
2540 7752
2540 8825
2540 9152
2540 9460
2541 2838
2541 2932
2541 3206
2541 3546
2541 4122
2541 4135
2541 4518
2541 4541
2541 5055
2541 5102
2541 5545
2541 5610
2541 5938
2541 6277
2541 8654
2541 9652
2542 5570
2542 5622
2542 8286
2542 9445
2542 9751
2543 2707
2543 3174
2543 3177
2543 3855
2543 4249
2543 4498
2543 4758
2543 5361
2543 5549
2543 6982
2543 7014
2543 7174
2543 7952
2543 7969
2543 8016
2544 2601
2544 3406
2544 4193
2544 4871
2544 5077
2544 5294
2544 5738
2544 6869
2544 7092
2544 8262
2544 8787
2544 9675
2545 3257
2545 3589
2545 3923
2545 4037
2545 4049
2545 4106
2545 5121
2545 5380
2545 5700
2545 5887
2545 6129
2545 7668
2545 7847
2545 8694
2545 8748
2545 9675
2546 2664
2546 2668
2546 4104
2546 4460
2546 5167
2546 5319
2546 5714
2546 6414
2546 8374
2547 2906
2547 3156
2547 3830
2547 3947
2547 4114
2547 4721
2547 4815
2547 5327
2547 5371
2547 5490
2547 5795
2547 5853
2547 6086
2547 6510
2547 8437
2547 8755
2547 8908
2547 9587
2548 2778
2548 2851
2548 3530
2548 3609
2548 4049
2548 4583
2548 5726
2548 5813
2548 6099
2548 6626
2548 6875
2548 6903
2548 7047
2548 7576
2548 8227
2548 8583
2548 8626
2548 9388
2549 2842
2549 2998
2549 3011
2549 3174
2549 3359
2549 3420
2549 3682
2549 4433
2549 4615
2549 5224
2549 5255
2549 5383
2549 5580
2549 6379
2549 7183
2549 7820
2549 7908
2549 8630
2549 8703
2549 8706
2549 9176
2549 9465
2549 9514
2549 9890
2550 3308
2550 3823
2550 4072
2550 4157
2550 5387
2550 6964
2550 7404
2550 7588
2551 2578
2551 3296
2551 4663
2551 5980
2551 6030
2551 6465
2551 6631
2551 7504
2551 7585
2551 8425
2551 8853
2552 3729
2552 4659
2552 4674
2552 4929
2552 5854
2552 6288
2552 7601
2552 7639
2553 2711
2553 3477
2553 3512
2553 4181
2553 4186
2553 5008
2553 5459
2553 5580
2553 5763
2553 5842
2553 5929
2553 6138
2553 6656
2553 8175
2553 8872
2553 9295
2553 9405
2554 2748
2554 3420
2554 3564
2554 4010
2554 4033
2554 4670
2554 5840
2554 5998
2554 6074
2554 6361
2554 7326
2554 7494
2554 8437
2554 9746
2555 3027
2555 3114
2555 5987
2555 7636
2556 3732
2556 4190
2556 6664
2556 6725
2556 7687
2556 8148
2557 3160
2557 4877
2557 5511
2557 6360
2557 8703
2558 3520
2558 3676
2558 3974
2558 4015
2558 4041
2558 5546
2558 6596
2559 2624
2559 3784
2559 3920
2559 5243
2559 5729
2559 5898
2559 6170
2559 6404
2559 7324
2559 7921
2559 8551
2559 8900
2560 3876
2560 4720
2560 5268
2560 6536
2560 7110
2560 8192
2560 8605
2561 2598
2561 3521
2561 4273
2561 4424
2561 4810
2561 5353
2561 6492
2561 6584
2561 6738
2561 7141
2561 7370
2561 7554
2561 8047
2561 8067
2561 8087
2561 8299
2561 8307
2561 8324
2561 8379
2561 8753
2561 9858
2562 2594
2562 2981
2562 2982
2562 3412
2562 3770
2562 4713
2562 5330
2562 5996
2562 6488
2562 7434
2562 7661
2562 8586
2562 9192
2562 9713
2563 2681
2563 3069
2563 4478
2563 4746
2563 6372
2563 6419
2563 7727
2563 9271
2563 9982
2564 3281
2564 3395
2564 3573
2564 4109
2564 4123
2564 4581
2564 5846
2564 6684
2564 7864
2564 9880
2565 4140
2565 4604
2565 4687
2565 5816
2565 6182
2565 6758
2565 7558
2565 7997
2565 9445
2566 2812
2566 3274
2566 3728
2566 3872
2566 5350
2566 6352
2566 9246
2566 9901
2567 4054
2567 4596
2567 4980
2567 5399
2567 6398
2567 7070
2567 7730
2567 7754
2567 9227
2567 9252
2568 2806
2568 3788
2568 4574
2568 4668
2568 5689
2568 5913
2568 5962
2568 6725
2569 2908
2569 3942
2569 4442
2569 5147
2569 6666
2569 6827
2569 7464
2569 7701
2569 9317
2570 2989
2570 3675
2570 4047
2570 4878
2570 5827
2570 6839
2570 7313
2570 7361
2570 7507
2570 8040
2570 8424
2570 9004
2570 9283
2570 9562
2570 9855
2571 2694
2571 3082
2571 3122
2571 3232
2571 3283
2571 3701
2571 5131
2571 6365
2571 6529
2571 7018
2571 7072
2571 7198
2571 7682
2572 2818
2572 3367
2572 5318
2572 6104
2572 6106
2572 6176
2572 7124
2572 9457
2573 3209
2573 3285
2573 4277
2573 6220
2573 6536
2573 8677
2573 8747
2573 9328
2573 9624
2574 3159
2574 3202
2574 4224
2574 4840
2574 5082
2574 5593
2574 6208
2574 6771
2574 6855
2574 6859
2574 6866
2574 6998
2574 7222
2575 3073
2575 3177
2575 3312
2575 3756
2575 3791
2575 4449
2575 6898
2575 7549
2576 2754
2576 3371
2576 3806
2576 3901
2576 5761
2576 6000
2576 6928
2576 7489
2576 8667
2576 9678
2576 9925
2577 3617
2577 6481
2577 6771
2577 8375
2577 9400
2577 9643
2578 3430
2578 4235
2578 6615
2578 6897
2578 7273
2578 7782
2578 8465
2578 8878
2578 9680
2579 3248
2579 3519
2579 4511
2579 5453
2579 6019
2579 6528
2579 6990
2579 7069
2579 8404
2579 9946
2580 3298
2580 3387
2580 3626
2580 4041
2580 4487
2580 4599
2580 4680
2580 5218
2580 5406
2580 6302
2580 6482
2580 6696
2580 7636
2580 7718
2580 8324
2580 8922
2580 9390
2580 9871
2581 3168
2581 3477
2581 6112
2581 6211
2581 7591
2582 3801
2582 3913
2582 4948
2582 5197
2582 6902
2582 7457
2582 7776
2582 8709
2582 9119
2583 2617
2583 4455
2583 4550
2583 7534
2583 7728
2583 7837
2584 2781
2584 3341
2584 3702
2584 3931
2584 4557
2584 4572
2584 4845
2584 6076
2584 8570
2584 9130
2585 4294
2585 4932
2585 6873
2585 7277
2586 2643
2586 2845
2586 2907
2586 3063
2586 3714
2586 3732
2586 3733
2586 4792
2586 5403
2586 5716
2586 5935
2586 6721
2586 7344
2586 8717
2586 8740
2586 9299
2586 9798
2587 3042
2587 3240
2587 4253
2587 4411
2587 4462
2587 5120
2587 5426
2587 5807
2587 5875
2587 6071
2587 7141
2587 7582
2587 8313
2587 8498
2587 9437
2588 3018
2588 3558
2588 5440
2588 5823
2588 6767
2589 2702
2589 3170
2589 3200
2589 6121
2589 6904
2589 6989
2589 7256
2589 8708
2589 9043
2589 9345
2590 3158
2590 4102
2590 4796
2590 5113
2590 5741
2590 5855
2590 6041
2590 8872
2590 9389
2590 9514
2591 3348
2591 3789
2591 4423
2591 6774
2591 6823
2591 8410
2591 8655
2591 9145
2591 9484
2592 2720
2592 3141
2592 4124
2592 4507
2592 4762
2592 4924
2592 4931
2592 8350
2592 9046
2593 2779
2593 2916
2593 4381
2593 4899
2593 4916
2593 7555
2593 7715
2593 8318
2593 9446
2594 3919
2594 3997
2594 4105
2594 5750
2594 8270
2594 8389
2594 9954
2595 3065
2595 4124
2595 4294
2595 4436
2595 5268
2595 9439
2596 2688
2596 3306
2596 4388
2596 5079
2596 6903
2596 7781
2597 2640
2597 2870
2597 2985
2597 3337
2597 3583
2597 3959
2597 4941
2597 7663
2597 7876
2598 2801
2598 2932
2598 4523
2598 4527
2598 4531
2598 4597
2598 6670
2598 6722
2598 6783
2598 6896
2598 9152
2598 9986
2599 3356
2599 3437
2599 3971
2599 4249
2599 4297
2599 4500
2599 9539
2600 2661
2600 4417
2600 6683
2600 8447
2600 9695
2600 9700
2601 3844
2601 8172
2602 2772
2602 4113
2602 4196
2602 4271
2602 5081
2602 5277
2602 6123
2602 9437
2602 9837
2602 9861
2603 3235
2603 5128
2603 5587
2603 7898
2604 3791
2604 4221
2604 4800
2604 4991
2604 5080
2604 6921
2604 8317
2604 9182
2605 4880
2605 6229
2605 7048
2605 8348
2605 8678
2605 8776
2605 9871
2606 2886
2606 3685
2606 3928
2606 4841
2606 4905
2606 5575
2606 6131
2606 6676
2606 6736
2606 6943
2606 8395
2606 9782
2607 3120
2607 3228
2607 3769
2607 3929
2607 4080
2607 4355
2607 4486
2607 6085
2607 6465
2607 6620
2607 7056
2607 7509
2607 8717
2607 9180
2608 3151
2608 3354
2608 3790
2608 4875
2608 5325
2608 5755
2608 7410
2608 8930
2608 9284
2608 9805
2609 3109
2609 4068
2609 4861
2609 5147
2609 8204
2609 8615
2610 2779
2610 3752
2610 4836
2610 4884
2610 4969
2610 5067
2610 5109
2610 5131
2610 5348
2610 5411
2610 5621
2610 6998
2610 7006
2610 8670
2611 3281
2611 3336
2611 4544
2611 6361
2611 6390
2611 7503
2611 8737
2611 9350
2612 4380
2612 4805
2612 4856
2612 5075
2612 5643
2612 6207
2613 3189
2613 4168
2613 5225
2613 5487
2613 5904
2613 8159
2614 4458
2614 4785
2614 5412
2614 6781
2614 7460
2614 7503
2614 7668
2614 7906
2614 9301
2615 2628
2615 3742
2615 4840
2615 5864
2615 6060
2615 8274
2615 8815
2615 9405
2615 9860
2616 2992
2616 4517
2616 4778
2616 6002
2616 6554
2616 7292
2616 9028
2617 2783
2617 3633
2617 3758
2617 4881
2617 6008
2617 6252
2617 6886
2617 9238
2618 2806
2618 2986
2618 5487
2618 5982
2618 6453
2618 8647
2618 9101
2618 9435
2619 3632
2619 3938
2619 5147
2619 5322
2619 6700
2619 8393
2619 8791
2619 9044
2619 9840
2620 3011
2620 3195
2620 3629
2620 4043
2620 4117
2620 4575
2620 8683
2620 9357
2621 3094
2621 6706
2621 7036
2621 8146
2621 8577
2621 8957
2621 9825
2622 2718
2622 3026
2622 3914
2622 6132
2622 8828
2623 3617
2623 4531
2623 5125
2623 5403
2623 5583
2623 7358
2623 7380
2623 7426
2623 7515
2623 7526
2623 8844
2624 2772
2624 5372
2624 6425
2624 8046
2625 2685
2625 2866
2625 3048
2625 3240
2625 3486
2625 3518
2625 3541
2625 4133
2625 4562
2625 4856
2625 5301
2625 5475
2625 5809
2625 6380
2625 6523
2625 7789
2625 8570
2625 8763
2626 2652
2626 2659
2626 6004
2626 6072
2626 6187
2626 6822
2626 8029
2626 8757
2627 2831
2627 3516
2627 3978
2627 4032
2627 6154
2627 7326
2627 7700
2627 7834
2628 4655
2628 6172
2628 6431
2628 7093
2628 7299
2628 7954
2629 3054
2629 3401
2629 3663
2629 3885
2629 3977
2629 4095
2629 4265
2629 4997
2629 5451
2629 7299
2629 8430
2630 2858
2630 2955
2630 3489
2630 5412
2630 5501
2630 7112
2630 7424
2630 7787
2630 7870
2630 9187
2630 9519
2631 3189
2631 4051
2631 7927
2631 9308
2632 2892
2632 2928
2632 2997
2632 3074
2632 3306
2632 3322
2632 3821
2632 5304
2632 6373
2632 6834
2632 6848
2632 7376
2632 7531
2632 7635
2632 7902
2632 8407
2632 8767
2632 9478
2632 9891
2633 2912
2633 3681
2633 3835
2633 3932
2633 4802
2633 5130
2633 5807
2633 6266
2633 6686
2633 7246
2633 7429
2633 7759
2633 8057
2633 9188
2633 9287
2633 9910
2634 2663
2634 3251
2634 3425
2634 4453
2634 5671
2634 6868
2634 7188
2634 9017
2634 9978
2635 2667
2635 2967
2635 3344
2635 3733
2635 4443
2635 6267
2635 6330
2635 7882
2635 7926
2635 9702
2635 9735
2636 3021
2636 3121
2636 3414
2636 3640
2636 8662
2636 9503
2637 5391
2637 5878
2637 6613
2637 8807
2637 9026
2637 9428
2638 3380
2638 3529
2638 3616
2638 4021
2638 4576
2638 5077
2638 5749
2638 5878
2638 6380
2638 8179
2638 8206
2638 9536
2639 3232
2639 3557
2639 3588
2639 3624
2639 4069
2639 4242
2639 4244
2639 4834
2639 5150
2639 5601
2639 5632
2639 6710
2639 7259
2639 8775
2640 3831
2640 4210
2640 4363
2640 5091
2640 5401
2640 5890
2641 3421
2641 3504
2641 4064
2641 5185
2641 7837
2641 8427
2641 9162
2642 3414
2642 4213
2642 8129
2642 9021
2643 3282
2643 3563
2643 3779
2643 4314
2643 4443
2643 4713
2643 4866
2643 5394
2643 5633
2643 5665
2643 5994
2643 6058
2643 6877
2643 8369
2643 8435
2643 9469
2644 3864
2644 4363
2644 5216
2644 6905
2644 9149
2645 3084
2645 3130
2645 3684
2645 4084
2645 4145
2645 4204
2645 4333
2645 4601
2645 4800
2645 5443
2645 5659
2645 5833
2645 6318
2645 6776
2645 6823
2645 7019
2645 7555
2645 7892
2645 7919
2645 8401
2645 9001
2645 9048
2645 9114
2645 9285
2646 3746
2646 4017
2646 4753
2646 5898
2646 6330
2646 7802
2646 7950
2646 8161
2646 8774
2646 9418
2647 3560
2647 3966
2647 4132
2647 4493
2647 6674
2647 7614
2647 8267
2647 9410
2648 3332
2648 4293
2648 7211
2648 7340
2648 7831
2648 7899
2648 8733
2649 3000
2649 4686
2649 5070
2649 7984
2649 9541
2650 3339
2650 3474
2650 4119
2650 5580
2650 7001
2650 8241
2650 9228
2651 2734
2651 4964
2651 5244
2651 7313
2651 7721
2651 8389
2651 9461
2652 2731
2652 3181
2652 3993
2652 4011
2652 4256
2652 4289
2652 5065
2652 5494
2652 5751
2652 6070
2652 6148
2652 6379
2652 6617
2652 6835
2652 7180
2652 7729
2652 8843
2653 2873
2653 4188
2653 4694
2653 5321
2653 6726
2653 7768
2653 9125
2654 2703
2654 4823
2654 5706
2654 6353
2654 6583
2654 6687
2654 9344
2655 2882
2655 3601
2655 3893
2655 5735
2655 6853
2655 7264
2655 8473
2655 8882
2655 9491
2655 9544
2656 2911
2656 8579
2657 3225
2657 3527
2657 5413
2657 6680
2657 7138
2657 7631
2657 8458
2657 8527
2658 2701
2658 2736
2658 2828
2658 3018
2658 3823
2658 4182
2658 6590
2658 6700
2658 7773
2658 7902
2658 8059
2658 8250
2659 2765
2659 3137
2659 4820
2659 5066
2659 5280
2659 6556
2659 7955
2659 8099
2659 8260
2659 9071
2660 2957
2660 3115
2660 3263
2660 3511
2660 3842
2660 4136
2660 4588
2660 5777
2660 6136
2660 6720
2660 7170
2660 7655
2660 8155
2660 9178
2660 9670
2660 9789
2661 3018
2661 3777
2661 5657
2661 6392
2661 6438
2661 7655
2661 8549
2661 8861
2661 9783
2662 2696
2662 2751
2662 2836
2662 2992
2662 3318
2662 3886
2662 3993
2662 4183
2662 4437
2662 4999
2662 5463
2662 7058
2662 7456
2662 7661
2662 7836
2662 9297
2663 3024
2663 3055
2663 3554
2663 4039
2663 4441
2663 4545
2663 4802
2663 7485
2664 3085
2664 3153
2664 4019
2664 5514
2664 7251
2664 8135
2664 8203
2664 9636
2664 9726
2665 2863
2665 3266
2665 3808
2665 4573
2665 4763
2665 5035
2665 5949
2665 6231
2665 6399
2665 6483
2665 7566
2665 8511
2666 2927
2666 3955
2666 4667
2666 5383
2666 5525
2666 6396
2666 6874
2666 6906
2666 8007
2666 8136
2667 3352
2667 3647
2667 4558
2667 7341
2667 8211
2667 9026
2667 9869
2668 2947
2668 3314
2668 4014
2668 4296
2668 4429
2668 5099
2668 5500
2668 7602
2668 8556
2668 8999
2668 9467
2668 9532
2669 2845
2669 2953
2669 2961
2669 3437
2669 3787
2669 3875
2669 3964
2669 5324
2669 5712
2669 6356
2669 6404
2669 6681
2669 6864
2669 6920
2669 7496
2669 7824
2669 7898
2669 8056
2669 8504
2669 8520
2669 8891
2669 9109
2669 9138
2669 9642
2670 3048
2670 4728
2670 5598
2670 6338
2670 6435
2670 7197
2670 7840
2670 8598
2671 3963
2671 5025
2671 6325
2671 6770
2671 7575
2672 2938
2672 3053
2672 3194
2672 3496
2672 3612
2672 4110
2672 4478
2672 5036
2672 5208
2672 5392
2672 5751
2672 6325
2672 7031
2672 8619
2672 9075
2672 9742
2673 2937
2673 4185
2673 4206
2673 4989
2673 5290
2673 7358
2673 7499
2673 8005
2674 2753
2674 2829
2674 3508
2674 3655
2674 3906
2674 4113
2674 6051
2674 6203
2674 6451
2674 7983
2675 3116
2675 3288
2675 3300
2675 3507
2675 3782
2675 4489
2675 5046
2675 5862
2675 9653
2676 2748
2676 2997
2676 4264
2676 7465
2676 8198
2676 9176
2677 3157
2677 3213
2677 4040
2677 4120
2677 4526
2677 4992
2677 5754
2677 5870
2677 6893
2677 7533
2677 9199
2678 3087
2678 3366
2678 3469
2678 3470
2678 3772
2678 4158
2678 4221
2678 4438
2678 4840
2678 5433
2678 5469
2678 5687
2678 7206
2678 7425
2678 7946
2678 8586
2678 9248
2678 9965
2679 2946
2679 5676
2679 5888
2679 6680
2679 8696
2679 8879
2680 3568
2680 6082
2680 7134
2680 7846
2680 8373
2680 9451
2680 9795
2681 3341
2681 5688
2681 6375
2681 6410
2681 7367
2681 8515
2681 8819
2681 9023
2681 9171
2682 4830
2682 4919
2682 5548
2682 6646
2682 8026
2682 9851
2683 3180
2683 3367
2683 3395
2683 3774
2683 4424
2683 4924
2683 5012
2683 5890
2683 6052
2683 6746
2683 8551
2683 9203
2684 6048
2684 6500
2684 6936
2684 7376
2684 8699
2684 8844
2685 2875
2685 3003
2685 3595
2685 5503
2685 6958
2685 7448
2685 8309
2686 3203
2686 3811
2686 4512
2686 4970
2686 5294
2686 6741
2686 7308
2686 9516
2687 2799
2687 3461
2687 5864
2687 7296
2687 7361
2687 7583
2687 8304
2687 8316
2687 9699
2688 2824
2688 3544
2688 3705
2688 4019
2688 4852
2688 4988
2688 5007
2688 5538
2688 6874
2688 6903
2688 7644
2688 9315
2688 9723
2689 5065
2689 5912
2689 6058
2689 6149
2689 7099
2689 7302
2689 8525
2689 8787
2689 9057
2689 9472
2690 3482
2690 5642
2690 6375
2690 6584
2690 9156
2691 3223
2691 3353
2691 3427
2691 3706
2691 5201
2691 5513
2691 5661
2691 6406
2691 7223
2691 8751
2691 9052
2692 2772
2692 3970
2692 4365
2692 5919
2692 7079
2692 7423
2692 7490
2692 9607
2693 3530
2693 5542
2693 6273
2693 6104
2694 4975
2694 7352
2694 9832
2694 9915
2695 3970
2695 4607
2695 6878
2695 7147
2695 8133
2695 9322
2696 2978
2696 3812
2696 4961
2696 5240
2696 6580
2697 2700
2697 2701
2697 3453
2697 4094
2697 6578
2697 7484
2697 7577
2698 3023
2698 3940
2698 4825
2698 6764
2698 7939
2698 8436
2698 8524
2699 4838
2699 5076
2699 5402
2699 5849
2699 6084
2699 6764
2699 7337
2699 7904
2700 2878
2700 3561
2700 3878
2700 3883
2700 4341
2700 4639
2700 4961
2700 5860
2700 6155
2700 6368
2700 6711
2700 7141
2700 7758
2701 3298
2701 4112
2701 4203
2701 4314
2701 5303
2701 5444
2701 7908
2701 8348
2701 8672
2702 3050
2702 4788
2702 5358
2702 6015
2702 6319
2702 8003
2702 8858
2703 2846
2703 3247
2703 3812
2703 3872
2703 4524
2703 4574
2703 4830
2703 5699
2703 8371
2703 8520
2703 9471
2703 9982
2704 2839
2704 2925
2704 3930
2704 5752
2704 6009
2704 6358
2704 6627
2705 3446
2705 3538
2705 4328
2705 5774
2705 6287
2705 6497
2706 2866
2706 3535
2706 4788
2706 4911
2706 5351
2706 5678
2706 7906
2706 9860
2707 3049
2707 3484
2707 3489
2707 3682
2707 3784
2707 4631
2707 5411
2707 5978
2707 7364
2707 7748
2707 7875
2707 8379
2708 2998
2708 3443
2708 4026
2708 5905
2708 6261
2708 9391
2708 9958
2709 2807
2709 3054
2709 3127
2709 3246
2709 3964
2709 4401
2709 4524
2709 4599
2709 4995
2709 5742
2709 6334
2709 6366
2709 7232
2709 7287
2709 9112
2710 4455
2710 7017
2710 9331
2710 9386
2711 3837
2711 3872
2711 4222
2711 4855
2711 5041
2711 5400
2711 5878
2711 6136
2711 6694
2711 6696
2711 6908
2711 7044
2711 7529
2711 7662
2711 8442
2711 8930
2712 5490
2712 5665
2712 6000
2712 8130
2712 8831
2712 9290
2712 9952
2713 3648
2713 3889
2713 5404
2713 6846
2713 7506
2713 7615
2713 8193
2714 3295
2714 3740
2714 4101
2714 6665
2714 6896
2714 7069
2714 7821
2714 8670
2714 9604
2715 3773
2715 4515
2715 4548
2715 5610
2715 5689
2715 7091
2716 3233
2716 4184
2716 6487
2716 7706
2716 9106
2717 3340
2717 4345
2717 4494
2717 4631
2717 4675
2717 5159
2717 5638
2717 5702
2717 6084
2717 7560
2717 8047
2717 9067
2717 9114
2717 9204
2718 3004
2718 3694
2718 3931
2718 4004
2718 4077
2718 4660
2718 5125
2718 5216
2718 5324
2718 5325
2718 5365
2718 5756
2718 6274
2718 6290
2718 6326
2718 7954
2719 3476
2719 3743
2719 4313
2719 6843
2719 6877
2719 7111
2719 8290
2720 2893
2720 3496
2720 3941
2720 4653
2720 4689
2720 5517
2720 5672
2720 5946
2720 7057
2720 8012
2720 8398
2720 8991
2720 9533
2721 3053
2721 3067
2721 3630
2721 4212
2721 5013
2721 5740
2721 7587
2722 4043
2722 4690
2722 5416
2722 5745
2722 8436
2722 7620
2723 3267
2723 3291
2723 3710
2723 3935
2723 4463
2723 5047
2723 5332
2723 5650
2723 5902
2723 6257
2723 6286
2723 7338
2723 8873
2724 2832
2724 4197
2724 4733
2724 4839
2724 4912
2724 4924
2724 4977
2724 5109
2724 5474
2724 5612
2724 5966
2724 6067
2724 6459
2724 7159
2724 8322
2725 2733
2725 3429
2725 4350
2725 5197
2725 5436
2725 5770
2725 6510
2726 3956
2726 4032
2726 4685
2726 4769
2726 5574
2726 6811
2726 7756
2726 8172
2726 8648
2726 8942
2727 3126
2727 3624
2727 7877
2727 8711
2727 9488
2728 4006
2728 4451
2728 4620
2728 4872
2728 5281
2728 5589
2728 5822
2728 7411
2728 9498
2729 5294
2729 5381
2729 5825
2729 6032
2729 7176
2729 9512
2730 3155
2730 5556
2730 5981
2730 7821
2730 8049
2730 8386
2730 9444
2731 3407
2731 3413
2731 3737
2731 4086
2731 4128
2731 4594
2731 4661
2731 4720
2731 4850
2731 7336
2731 8245
2731 8634
2731 9746
2732 2794
2732 3140
2732 3653
2732 6160
2732 8176
2732 9039
2732 9252
2733 4576
2733 4595
2733 4947
2733 5961
2733 6988
2733 7541
2733 9470
2734 2787
2734 2967
2734 3384
2734 4590
2734 5971
2734 6172
2734 6383
2735 3861
2735 4657
2735 5285
2735 7096
2735 7667
2735 8938
2735 9401
2736 3418
2736 3585
2736 4165
2736 4246
2736 4561
2736 4631
2736 5184
2736 5792
2736 6109
2736 7516
2736 8007
2736 8050
2736 8064
2736 9112
2736 9689
2737 3149
2737 3869
2737 4273
2737 4517
2737 4920
2737 5734
2737 6059
2737 6454
2737 7651
2737 8085
2737 8601
2738 2889
2738 4290
2738 4658
2738 6254
2738 7182
2738 9571
2739 3370
2739 3447
2739 3958
2739 5916
2739 7363
2739 8354
2739 9387
2740 2902
2740 3522
2740 4224
2740 4974
2740 5564
2740 6151
2740 6579
2741 3542
2741 3610
2741 7640
2741 7977
2741 9569
2742 3509
2742 3558
2742 3824
2742 4064
2742 4809
2742 5811
2742 6922
2742 7727
2742 8609
2743 3272
2743 3348
2743 4276
2743 5034
2743 5292
2743 7219
2744 3652
2744 4878
2744 7099
2744 7867
2744 8756
2744 9219
2744 9337
2744 9729
2745 3156
2745 5674
2745 6105
2745 6559
2745 9611
2746 2812
2746 2912
2746 3674
2746 5376
2746 5653
2746 5941
2746 6341
2746 6416
2746 6455
2746 6463
2746 7094
2746 7346
2746 8003
2746 8627
2746 9749
2746 9883
2747 6112
2747 6911
2747 7015
2747 7767
2747 8080
2747 8580
2747 8866
2747 9426
2747 9631
2747 9717
2748 2902
2748 3301
2748 3383
2748 3819
2748 5716
2748 5963
2748 6552
2748 9171
2748 9448
2749 3287
2749 4333
2749 4873
2749 5225
2749 5538
2749 6026
2749 6048
2749 7817
2749 8472
2749 9326
2750 2791
2750 4245
2750 4365
2750 4394
2750 5848
2750 6458
2751 3608
2751 3766
2751 3867
2751 5613
2751 6355
2751 6713
2751 7338
2751 9287
2751 9610
2751 9758
2752 2836
2752 3441
2752 3517
2752 3807
2752 4214
2752 4842
2752 5964
2752 6102
2752 6753
2752 6993
2752 7176
2752 7392
2752 7412
2752 8394
2752 9263
2753 3199
2753 3258
2753 3928
2753 5385
2753 5730
2754 2821
2754 3300
2754 3369
2754 3463
2754 4155
2754 4770
2754 5086
2754 5423
2754 5993
2754 7504
2754 8664
2754 9676
2755 3284
2755 3647
2755 3741
2755 4037
2755 7887
2755 8967
2756 3109
2756 3823
2756 4246
2756 4608
2756 5727
2756 5791
2756 7107
2756 8553
2756 9146
2756 5513
2757 3311
2757 3809
2757 4615
2757 4736
2757 5478
2757 6819
2757 6861
2757 7060
2757 9672
2758 3223
2758 3614
2758 5217
2758 5452
2758 7062
2758 8045
2758 9098
2758 9128
2758 9275
2759 2788
2759 2830
2759 2925
2759 3007
2759 3042
2759 4016
2759 4295
2759 4577
2759 4709
2759 4817
2759 4878
2759 5589
2759 5803
2759 6193
2759 7374
2759 7629
2759 7811
2759 7908
2759 9010
2759 9130
2759 9697
2759 9862
2760 3013
2760 3690
2760 6290
2760 8685
2761 3479
2761 3536
2761 4440
2761 5968
2761 6573
2761 6924
2761 7963
2761 8056
2761 9914
2762 2885
2762 3164
2762 3653
2762 3672
2762 4184
2762 4392
2762 4639
2762 4670
2762 5395
2762 6244
2762 6583
2762 7518
2762 8084
2762 8540
2762 8646
2762 8948
2762 9390
2763 2871
2763 2923
2763 2954
2763 3205
2763 3603
2763 4817
2763 4826
2763 5491
2763 6907
2763 7078
2763 8085
2763 9129
2763 9217
2763 9388
2763 9545
2763 9564
2763 9901
2764 2859
2764 3030
2764 3412
2764 4280
2764 4377
2764 4669
2764 5532
2764 5998
2764 6492
2764 6854
2764 7371
2764 7495
2764 7911
2764 9643
2764 9956
2765 3677
2765 4342
2765 4703
2765 4738
2765 4893
2765 4966
2765 5099
2765 5150
2765 5232
2765 5257
2765 5272
2765 5415
2765 5832
2765 6130
2765 6433
2765 6456
2765 6771
2766 2769
2766 2821
2766 3370
2766 4842
2766 5098
2766 5872
2766 6620
2766 6930
2766 7584
2766 8747
2766 9661
2767 3037
2767 3345
2767 3927
2767 4524
2767 5899
2767 6087
2767 6772
2767 8465
2767 8992
2767 9910
2768 2990
2768 3436
2768 3986
2768 4215
2768 4464
2768 4480
2768 6483
2768 8283
2768 8461
2769 3434
2769 3585
2769 3651
2769 3931
2769 4086
2769 4300
2769 5267
2769 6127
2769 6208
2769 6607
2769 7188
2769 8316
2769 9286
2770 2855
2770 3179
2770 3234
2770 3480
2770 5400
2770 5465
2770 5615
2770 6230
2770 8001
2770 8124
2770 8393
2771 2991
2771 3216
2771 3486
2771 3822
2771 4485
2771 4571
2771 5541
2771 5754
2771 6021
2771 6290
2771 6575
2771 7678
2771 8073
2771 9044
2771 9409
2771 9473
2771 9530
2772 2820
2772 3432
2772 6151
2772 7202
2772 7272
2772 7868
2773 3047
2773 3301
2773 3376
2773 3475
2773 3889
2773 5040
2773 5678
2773 6528
2773 6831
2773 6844
2773 8629
2773 8879
2773 8973
2773 9375
2774 5123
2774 6077
2774 7594
2774 8734
2775 3321
2775 3769
2775 4874
2775 4897
2775 5209
2775 6220
2775 6842
2775 7765
2775 7809
2775 8190
2775 8210
2776 3038
2776 3352
2776 4039
2776 4563
2776 4931
2776 5017
2776 5492
2776 7962
2776 8019
2776 8935
2776 9404
2777 3029
2777 3371
2777 3380
2777 3492
2777 5276
2777 5374
2777 5381
2777 6737
2777 7709
2777 9231
2777 9983
2778 3473
2778 3673
2778 5381
2778 6361
2778 6579
2778 6991
2778 8908
2779 2951
2779 3484
2779 4324
2779 4625
2779 5061
2779 5081
2779 5522
2779 6648
2779 7222
2779 8021
2779 8915
2780 3197
2780 3491
2780 4826
2780 5510
2780 6048
2780 7671
2781 3262
2781 4656
2781 5793
2781 6780
2781 7785
2781 8016
2781 9161
2782 2803
2782 3661
2782 3723
2782 4319
2782 4861
2782 5119
2782 6021
2782 6525
2782 6808
2782 7198
2782 8729
2782 9511
2783 2814
2783 3182
2783 3888
2783 4156
2783 4331
2783 4353
2783 5399
2783 6102
2783 7689
2783 7783
2783 8766
2784 3451
2784 4652
2784 5013
2784 5071
2784 5110
2784 8544
2784 8691
2784 9102
2784 9417
2784 9556
2784 9686
2784 9902
2784 9912
2785 3157
2785 3744
2785 4255
2785 4332
2785 4650
2785 4925
2785 5847
2785 6868
2785 7243
2785 7967
2785 8867
2785 9180
2786 3066
2786 4570
2786 5245
2786 5431
2786 6678
2786 7104
2786 7533
2786 9000
2786 9627
2787 3804
2787 3858
2787 4364
2787 5738
2787 7103
2787 7111
2787 7766
2787 9502
2788 3022
2788 3940
2788 4110
2788 7046
2788 9062
2788 9480
2789 3266
2789 3737
2789 4376
2789 4493
2789 4574
2789 5396
2789 5451
2789 5458
2789 6002
2789 6302
2789 7167
2789 7366
2789 7680
2789 8004
2789 8097
2789 8447
2789 9033
2789 9496
2789 9850
2789 9942
2790 3319
2790 3386
2790 3622
2790 3850
2790 3891
2790 4113
2790 4268
2790 4815
2790 5044
2790 6050
2790 6198
2790 6311
2790 7368
2790 8372
2790 8658
2790 8758
2790 9473
2791 3160
2791 3257
2791 4444
2791 6175
2791 6260
2791 7848
2791 8258
2791 9929
2792 3453
2792 3836
2792 4324
2792 5154
2792 5193
2792 5639
2792 7185
2792 7828
2792 8207
2793 2897
2793 2964
2793 3070
2793 3206
2793 4593
2793 6697
2793 8644
2793 9392
2793 9560
2794 3068
2794 3640
2794 4994
2794 6825
2794 8272
2795 3488
2795 5012
2795 5228
2795 5673
2795 6296
2795 6875
2795 6899
2795 7302
2795 8210
2795 8979
2795 9916
2796 2899
2796 3194
2796 3302
2796 3907
2796 4669
2796 6415
2796 6426
2796 7342
2796 7940
2796 8126
2797 3119
2797 3385
2797 4056
2797 4236
2797 5001
2797 6048
2797 6837
2797 9074
2797 9619
2798 3205
2798 4607
2798 5013
2798 6806
2799 3414
2799 3756
2799 4706
2799 4777
2799 5677
2799 7456
2799 8543
2799 8932
2799 9551
2800 3219
2800 3299
2800 3446
2800 5894
2800 6242
2800 6699
2800 7436
2800 8149
2800 9954
2801 3431
2801 4357
2801 5148
2801 5510
2801 6641
2801 8251
2802 5011
2802 5183
2802 6597
2802 8170
2802 8780
2802 8827
2803 3769
2803 4217
2803 5074
2803 5077
2803 5761
2803 6533
2803 7375
2804 2886
2804 3144
2804 3326
2804 4304
2804 4529
2804 5737
2804 6194
2804 6319
2804 6890
2804 7102
2805 3195
2805 3715
2805 3824
2805 4297
2805 4756
2805 4808
2805 5141
2805 5153
2805 5365
2805 6179
2805 8417
2805 8589
2805 9764
2806 3536
2806 3761
2806 4792
2806 4968
2806 5291
2806 7786
2806 8231
2807 3457
2807 4701
2807 7886
2807 8195
2808 3971
2808 4060
2808 4124
2808 4974
2808 5251
2808 5962
2808 7146
2808 7759
2808 8855
2808 9098
2808 9582
2809 3331
2809 4514
2809 4521
2809 4554
2809 6150
2809 6456
2809 7558
2809 8043
2810 3396
2810 4383
2810 4802
2810 6638
2810 6791
2810 6813
2810 6848
2810 7979
2811 3876
2811 3908
2811 4348
2811 5354
2811 6132
2811 6478
2811 7489
2812 2875
2812 4095
2812 6484
2812 7170
2812 9034
2812 9933
2813 3412
2813 3468
2813 4137
2813 4233
2813 4738
2813 5072
2813 5347
2813 6167
2813 6404
2813 6574
2813 6688
2813 7287
2813 7704
2813 7845
2813 8132
2813 8540
2813 9559
2814 3296
2814 3476
2814 4478
2814 5404
2814 6734
2815 3012
2815 3086
2815 4209
2815 4617
2815 5022
2815 5135
2815 7403
2815 7755
2815 7835
2815 8039
2815 8778
2815 8878
2815 9716
2816 3036
2816 8405
2816 9881
2817 3408
2817 3568
2817 6559
2817 8500
2817 3519
2818 3994
2818 4701
2818 5049
2818 5425
2818 5828
2818 5921
2818 6226
2818 7254
2818 8329
2818 8567
2818 9613
2819 2945
2819 3810
2819 4707
2819 5363
2819 5996
2819 6764
2819 7865
2819 8323
2819 8959
2820 4314
2820 5154
2820 5511
2820 5548
2820 5847
2820 7840
2820 8572
2820 9827
2821 3012
2821 3315
2821 3537
2821 5938
2821 7376
2821 7482
2821 8658
2821 9283
2821 9380
2821 9511
2822 3114
2822 3120
2822 3272
2822 3574
2822 3748
2822 3796
2822 4036
2822 4125
2822 4173
2822 4207
2822 4937
2822 5305
2822 6938
2822 7255
2822 7818
2822 8245
2822 8581
2822 8730
2822 9271
2822 9321
2822 9420
2822 9816
2823 3639
2823 4033
2823 4813
2823 5809
2823 6022
2823 6122
2823 6460
2823 6605
2823 7667
2823 7790
2823 8471
2823 9203
2823 9421
2823 9525
2824 2853
2824 3222
2824 5773
2824 8353
2825 4503
2825 4663
2825 5370
2825 5474
2825 7112
2825 7115
2825 7358
2825 8631
2826 2941
2826 3484
2826 3857
2826 4613
2826 5142
2826 5199
2826 5778
2826 6439
2826 6528
2826 7453
2826 7556
2826 7672
2826 8539
2826 9081
2826 9835
2827 3143
2827 3149
2827 4838
2827 6671
2827 6738
2827 7509
2827 9972
2828 3207
2828 3297
2828 3560
2828 3582
2828 4782
2828 5046
2828 8045
2828 8076
2829 3171
2829 3181
2829 3250
2829 5054
2829 5085
2829 5353
2829 6858
2829 7152
2829 7468
2829 8703
2830 3731
2830 3965
2830 4517
2830 4970
2830 5380
2830 6369
2830 6587
2830 6814
2830 7390
2830 7961
2830 8532
2830 8592
2830 9055
2830 9231
2830 9247
2830 9344
2830 9543
2831 3224
2831 3670
2831 4028
2831 4773
2831 4801
2831 5332
2831 6663
2831 6870
2831 7081
2831 7790
2831 7915
2831 8755
2831 8921
2831 9850
2831 9996
2832 3931
2832 4005
2832 5186
2832 5400
2832 5489
2832 7446
2832 7618
2832 8338
2833 4087
2833 4857
2833 5400
2833 6236
2833 7349
2834 2978
2834 3914
2834 5416
2834 6496
2834 6716
2834 7936
2834 8154
2835 4420
2835 4896
2835 6624
2835 6939
2835 8376
2835 9697
2835 9738
2836 3699
2836 4199
2836 6282
2836 6285
2836 6548
2836 6971
2836 7866
2836 8146
2836 9239
2836 9438
2837 3387
2837 3894
2837 4258
2837 5645
2837 6698
2837 7990
2837 9138
2837 9431
2837 9742
2838 3815
2838 4034
2838 4462
2838 5192
2838 7481
2838 8131
2838 8429
2839 2932
2839 3781
2839 4450
2839 4451
2839 5680
2839 6985
2839 9728
2840 2909
2840 3552
2840 4846
2840 4905
2840 5625
2840 6901
2841 3112
2841 4423
2841 4871
2841 7304
2841 8023
2842 3355
2842 3571
2842 3669
2842 4182
2842 4300
2842 4598
2842 5260
2842 5506
2842 5660
2842 6099
2842 8466
2842 9139
2842 9311
2842 9429
2843 3907
2843 5309
2843 8185
2843 9633
2844 2880
2844 3073
2844 3670
2844 4256
2844 4508
2844 4646
2844 5228
2844 5525
2844 5551
2844 6080
2844 6843
2844 6959
2844 7162
2844 8864
2844 8962
2845 3427
2845 3976
2845 4131
2845 4878
2845 5261
2845 5944
2845 6644
2845 6899
2845 7230
2845 8074
2845 9396
2845 9824
2846 2926
2846 3657
2846 3942
2846 4138
2846 5213
2846 5597
2846 6401
2846 7378
2846 8880
2846 9764
2847 2906
2847 3870
2847 4090
2847 4444
2847 4543
2847 5570
2847 6347
2847 7358
2847 8750
2847 9576
2847 9893
2848 3230
2848 4682
2848 5133
2848 5849
2848 7001
2848 7009
2848 7587
2848 8062
2848 8237
2848 9428
2849 8295
2849 9277
2849 9470
2850 2882
2850 2921
2850 2951
2850 3154
2850 4179
2850 5312
2850 5396
2850 5487
2850 6091
2850 6716
2850 6929
2850 7875
2850 7891
2850 9143
2851 3023
2851 3460
2851 3510
2851 4606
2851 5721
2851 6230
2851 6459
2851 7068
2851 9995
2852 2974
2852 3117
2852 6812
2852 6958
2852 7784
2852 8260
2852 8474
2852 8746
2852 9676
2853 4407
2853 4740
2853 5405
2853 5582
2853 5661
2853 7530
2853 7597
2853 8701
2853 9023
2853 9368
2854 4185
2854 4463
2854 5621
2854 7252
2855 3642
2855 6350
2855 6606
2855 7852
2855 8186
2855 8398
2855 8863
2856 3551
2856 3992
2856 4069
2856 4198
2856 4302
2856 4375
2856 4622
2856 4925
2856 5061
2856 5225
2856 5863
2856 6777
2856 7184
2856 7373
2856 7396
2856 7563
2856 7827
2856 8240
2856 9989
2857 3144
2857 3332
2857 3609
2857 3744
2857 4326
2857 4604
2857 4880
2857 4912
2857 4953
2857 5473
2857 5722
2857 6171
2857 7298
2857 7650
2857 7821
2857 8010
2857 8286
2857 9560
2857 9808
2858 3455
2858 4100
2858 5390
2858 5448
2858 5918
2858 6821
2858 6871
2858 9139
2858 9225
2858 9265
2858 9775
2859 3310
2859 6059
2859 8551
2859 9810
2860 3355
2860 3748
2860 3861
2860 4183
2860 7316
2860 8939
2861 3398
2861 3948
2861 4068
2861 4171
2861 4980
2861 4981
2861 5245
2861 5866
2861 6158
2861 6292
2861 6687
2861 7203
2861 7906
2861 8747
2861 8882
2861 9063
2861 9948
2862 4007
2862 4525
2862 5052
2862 5858
2862 7962
2862 9101
2862 9467
2862 9550
2863 3999
2863 4035
2863 4305
2863 4847
2863 5198
2863 5629
2863 6055
2863 6117
2863 6750
2863 7200
2863 7341
2863 7454
2863 9174
2863 9316
2864 3602
2864 4558
2864 4889
2864 5017
2864 5324
2864 5554
2864 5774
2864 7367
2864 8694
2864 9108
2865 4446
2865 4956
2865 6040
2866 3318
2866 3394
2866 3539
2866 3771
2866 3992
2866 4565
2866 5767
2866 6729
2866 7057
2866 7156
2866 7238
2866 7732
2866 7990
2867 5233
2867 6316
2867 7582
2867 9045
2868 2998
2868 3455
2868 4127
2868 4403
2868 4903
2868 5270
2868 7178
2868 7320
2868 7376
2868 7459
2868 8193
2869 2935
2869 3027
2869 3083
2869 3743
2869 4165
2869 4798
2869 5228
2869 5553
2869 6505
2869 6655
2869 6694
2869 8175
2870 3068
2870 3261
2870 3875
2870 3903
2870 5128
2870 5636
2870 6240
2870 6465
2870 7015
2870 8310
2870 8326
2871 4434
2871 4481
2871 4513
2871 4541
2871 4756
2871 5558
2871 5795
2871 7203
2871 8863
2871 9560
2872 3084
2872 3529
2872 3763
2872 4602
2872 5091
2872 5311
2872 6245
2872 6637
2872 6810
2872 7555
2872 8851
2872 9227
2872 9463
2872 9515
2873 3221
2873 3573
2873 4099
2873 4639
2873 4884
2873 6081
2873 6230
2873 6560
2873 7422
2873 8251
2873 8637
2873 8704
2873 9080
2873 9360
2873 9410
2874 3139
2874 3986
2874 4079
2874 4188
2874 4435
2874 5027
2874 6849
2874 6894
2874 7615
2874 7905
2874 8690
2874 9780
2876 3128
2876 3543
2876 3974
2876 5650
2876 7295
2876 9899
2877 3808
2877 3823
2877 3829
2877 4477
2877 4930
2877 6418
2877 6605
2877 7064
2877 7537
2878 3888
2878 4364
2878 4411
2878 4593
2878 4728
2878 5343
2878 6104
2878 6354
2878 8375
2878 8538
2879 4730
2879 4731
2879 5552
2879 7137
2879 7991
2879 8023
2879 8152
2879 8533
2879 9288
2880 4026
2880 5874
2880 6058
2880 6189
2880 7966
2880 8491
2881 2934
2881 3258
2881 4308
2881 4914
2881 5699
2881 6345
2881 6398
2881 7271
2881 7379
2881 8328
2881 9051
2881 9108
2881 9860
2882 3565
2882 4699
2882 6059
2882 6143
2882 6883
2882 8687
2882 8737
2883 3210
2883 3225
2883 5042
2883 5961
2883 7015
2883 7378
2883 8862
2884 3541
2884 4161
2884 5679
2885 3029
2885 3605
2885 4107
2885 4959
2885 5384
2885 6760
2885 7197
2885 7410
2885 7729
2886 3930
2886 4081
2886 4561
2886 5061
2886 5351
2886 6557
2886 6595
2886 8199
2886 9012
2887 3160
2887 4837
2887 4977
2887 5066
2887 5305
2887 6358
2887 8117
2887 8448
2887 9315
2888 3057
2888 3064
2888 3471
2888 4282
2888 5158
2888 9224
2889 3934
2889 4259
2889 4386
2889 6879
2889 7406
2889 8777
2890 5117
2890 5542
2890 7879
2891 3321
2891 3475
2891 5613
2891 7412
2891 7543
2891 7838
2891 7901
2891 7951
2891 8251
2891 8568
2892 3985
2892 5798
2892 5857
2892 6771
2892 7173
2892 8083
2893 3013
2893 3834
2893 3866
2893 4341
2893 4638
2893 6474
2893 7102
2894 4146
2894 4443
2894 7172
2894 8183
2894 9176
2895 3163
2895 3462
2895 3730
2895 3795
2895 4086
2895 4380
2895 5111
2895 5158
2895 8160
2895 8611
2895 8655
2895 8886
2895 9340
2896 3525
2896 4008
2896 4258
2896 4393
2896 4690
2896 4781
2896 4853
2896 5023
2896 5712
2896 7359
2896 8385
2896 8979
2897 3414
2897 3536
2897 4948
2897 6016
2897 6266
2898 3359
2898 3719
2898 3843
2898 4375
2898 5570
2898 6717
2898 7374
2898 7602
2898 9781
2899 3024
2899 3506
2899 4118
2899 4584
2899 4738
2899 5106
2899 5392
2899 5447
2899 6056
2899 8359
2899 9174
2899 9407
2900 8790
2900 8813
2900 9787
2901 3084
2901 4319
2901 4978
2901 7028
2901 9453
2901 9743
2902 3360
2902 3760
2902 3849
2902 4068
2902 4137
2902 4489
2902 4941
2902 5040
2902 5475
2902 5647
2902 8720
2902 8722
2902 9053
2903 2992
2903 3392
2903 3826
2903 5123
2903 5228
2903 5671
2903 6337
2903 6497
2903 7365
2903 7540
2903 9653
2903 9721
2904 4689
2904 9849
2905 3201
2905 3242
2905 4552
2905 5072
2905 5970
2905 6107
2905 9145
2906 7542
2907 3784
2907 3890
2907 4583
2907 4770
2907 4809
2907 6501
2907 6676
2907 6941
2907 7451
2907 8144
2907 9917
2907 6128
2908 3722
2908 4185
2908 4186
2908 4354
2908 5002
2908 5429
2908 5876
2908 6804
2908 7405
2909 4009
2909 4796
2909 5270
2909 5893
2909 6116
2909 7139
2909 7604
2909 7778
2909 9513
2909 9591
2909 9978
2909 9988
2910 2964
2910 3329
2910 3398
2910 3837
2910 3854
2910 4115
2910 6423
2910 8293
2910 8724
2910 9620
2911 3521
2911 6030
2911 6144
2911 7213
2911 7472
2911 8917
2912 3582
2912 3782
2912 4126
2912 5279
2912 5867
2912 6319
2912 6900
2912 7322
2912 7610
2912 8126
2913 3897
2913 4026
2913 4045
2913 4163
2913 4199
2913 5013
2913 5272
2913 5489
2913 5521
2913 5559
2913 5675
2913 5990
2913 6398
2913 6616
2913 6785
2913 7344
2913 7496
2913 7771
2913 7948
2913 8452
2913 8811
2913 9540
2914 3219
2914 7284
2914 8311
2914 8466
2914 9788
2915 2984
2915 3346
2915 4115
2915 4338
2915 4465
2915 4735
2915 6710
2915 7872
2915 7885
2915 8341
2915 8818
2916 2940
2916 5267
2916 8627
2917 4408
2917 4997
2917 5117
2917 6065
2917 8329
2917 9668
2917 9795
2918 3355
2918 4430
2918 4477
2918 4903
2918 5540
2918 7433
2918 9399
2919 5644
2919 6843
2919 8757
2919 8890
2919 9434
2920 3034
2920 3163
2920 3722
2920 3814
2920 3844
2920 4651
2920 5575
2920 5607
2920 5620
2920 6111
2920 7357
2920 7508
2920 7989
2920 8210
2920 8418
2920 8577
2920 9519
2920 9823
2921 3055
2921 4928
2921 5175
2921 5967
2921 6648
2921 7494
2921 8405
2921 8501
2921 9267
2922 3544
2922 3820
2922 4114
2922 4230
2922 5340
2922 5466
2922 6701
2922 7437
2922 9061
2922 9353
2922 9449
2922 9460
2923 3562
2923 4906
2923 6218
2923 7260
2923 8828
2923 8127
2924 2978
2924 3004
2924 3880
2924 5950
2924 5954
2924 6110
2924 7263
2924 7840
2924 8077
2924 8725
2925 3551
2925 3709
2925 3782
2925 3821
2925 5721
2925 5797
2925 6071
2925 6643
2925 6948
2925 7615
2925 7624
2925 7874
2926 3776
2926 4011
2926 6630
2926 7685
2926 8270
2926 8767
2927 5651
2927 5845
2927 6917
2928 3106
2928 3672
2928 4830
2928 4944
2928 5176
2928 5234
2928 5909
2928 6341
2928 8026
2928 8718
2928 8875
2929 3111
2929 4936
2929 5924
2929 7137
2929 7171
2929 8121
2929 9381
2930 3467
2930 5800
2930 6048
2930 6204
2930 6470
2930 6571
2930 7819
2930 8107
2930 8954
2931 2932
2931 3548
2931 6743
2931 7515
2931 7715
2931 7916
2931 9353
2932 3858
2932 4049
2932 4493
2932 5454
2932 6076
2932 6333
2932 7113
2932 9398
2933 3413
2933 3479
2933 6179
2933 7743
2933 9243
2934 5184
2934 6192
2934 6466
2934 6592
2935 3143
2935 3404
2935 4304
2935 4482
2935 5684
2935 6167
2935 6593
2935 7040
2935 7056
2935 7578
2935 9702
2935 9766
2935 9941
2936 2999
2936 4549
2936 6540
2936 7701
2936 7981
2936 8828
2936 9245
2936 9484
2937 3048
2937 3069
2937 3214
2937 3972
2937 3987
2937 4069
2937 4167
2937 4755
2937 4760
2937 4858
2937 5470
2937 5728
2937 6718
2937 7047
2937 7263
2937 8131
2937 8867
2938 3855
2938 5146
2938 5735
2938 6235
2938 8361
2938 8803
2938 9205
2939 3331
2939 3967
2939 4151
2939 4161
2939 4211
2939 4422
2939 4908
2939 5966
2939 6032
2939 7184
2940 3361
2940 3523
2940 4129
2940 6318
2940 6570
2940 8233
2940 8931
2940 9978
2941 3317
2941 3631
2941 4163
2941 4547
2941 5517
2941 6233
2941 6451
2941 6483
2941 8090
2941 8362
2941 9476
2942 3238
2942 3553
2942 4928
2942 5232
2942 5804
2942 6087
2942 7166
2943 3029
2943 3197
2943 4720
2943 5144
2943 6605
2943 6770
2943 8650
2943 8665
2943 9107
2943 9792
2943 9829
2944 3487
2944 4559
2944 5035
2944 5045
2944 5524
2944 5572
2944 6317
2944 6350
2944 7318
2944 7833
2944 9364
2945 4515
2945 7076
2945 7800
2945 8809
2946 3176
2946 8048
2946 9168
2947 4151
2947 4270
2947 9098
2948 5007
2948 6568
2948 8899
2948 9050
2948 9329
2948 9373
2948 9867
2949 5265
2949 5497
2949 7269
2949 9712
2950 7272
2950 7479
2950 7604
2950 7688
2950 8086
2951 2988
2951 5014
2951 5086
2951 5103
2951 5394
2951 5426
2951 5537
2951 5792
2951 7792
2951 8137
2951 8888
2951 8980
2951 9466
2952 3873
2952 4644
2952 5391
2952 5765
2952 6225
2952 6643
2952 6855
2952 7587
2952 9200
2952 9258
2953 3762
2953 3783
2953 4142
2953 4176
2953 8630
2953 8981
2953 9972
2954 4010
2954 4195
2954 5225
2954 5241
2954 5945
2954 6036
2954 6689
2954 7680
2954 8797
2954 8885
2954 9290
2955 3193
2955 3255
2955 3866
2955 4550
2955 5191
2955 7484
2955 7826
2955 9197
2955 9454
2956 3181
2956 4863
2956 6174
2956 6462
2957 3110
2957 3456
2957 3506
2957 3714
2957 4181
2957 4799
2957 5009
2957 5437
2957 6139
2957 6754
2957 9042
2957 9520
2958 3271
2958 3461
2958 3638
2958 4483
2958 6116
2958 6616
2958 7017
2958 7371
2958 9695
2959 4443
2959 5615
2959 6803
2959 8238
2959 9317
2960 4287
2960 5235
2960 6375
2960 6736
2960 7956
2960 8441
2960 8623
2960 8760
2961 3015
2961 3709
2961 4167
2961 4978
2961 6744
2961 8899
2962 4705
2962 6682
2962 7045
2963 4263
2963 4810
2963 5428
2963 6193
2963 6360
2963 6646
2963 9140
2964 4226
2964 4539
2964 4975
2964 5803
2964 5895
2964 7519
2965 3943
2965 4663
2965 4902
2965 5281
2965 5972
2965 7253
2966 3518
2966 3604
2966 3857
2966 4248
2966 5409
2966 6224
2966 7538
2966 7775
2966 7958
2966 8667
2967 3841
2967 5043
2967 5060
2967 7418
2967 9803
2968 3577
2968 3622
2968 3755
2968 3804
2968 4044
2968 6807
2968 6968
2968 7513
2968 9414
2969 3656
2969 3697
2969 4063
2969 4203
2969 4685
2969 4814
2969 5848
2969 7440
2969 7494
2969 7585
2969 9448
2970 3766
2970 5535
2970 7766
2970 8168
2970 8544
2970 9906
2971 3175
2971 3247
2971 3396
2971 3599
2971 3793
2971 3794
2971 3860
2971 4065
2971 4123
2971 4269
2971 4534
2971 5122
2971 5663
2971 6502
2971 7679
2971 8338
2971 8466
2972 3939
2972 4105
2972 4257
2972 4549
2972 4565
2972 4743
2972 4908
2972 5653
2972 5687
2972 6057
2972 6228
2972 6543
2972 6709
2972 6816
2972 6947
2972 7070
2973 4535
2973 4911
2973 6272
2973 6468
2973 6610
2973 7581
2973 7856
2973 9548
2973 9550
2974 3268
2974 3351
2974 5450
2974 8776
2975 3076
2975 5755
2975 7263
2975 7345
2975 8984
2975 9376
2976 4598
2976 4979
2976 5783
2976 5900
2976 6461
2976 6684
2976 7213
2976 7658
2976 8499
2977 3442
2977 3832
2977 4182
2977 5137
2977 5386
2977 7588
2977 7728
2977 7757
2977 8369
2977 8887
2977 8953
2977 9028
2977 9731
2978 3837
2978 5445
2978 6963
2978 7872
2978 8378
2979 3898
2979 4398
2979 4502
2979 4613
2979 4640
2979 5283
2979 5824
2979 5846
2979 8133
2979 9577
2979 9806
2979 9843
2980 3655
2980 6825
2981 4157
2981 4828
2981 5006
2981 6429
2981 6464
2981 7334
2981 9499
2981 9803
2982 4218
2982 4640
2982 5477
2982 6895
2982 7224
2982 9826
2982 5218
2983 3383
2983 3494
2983 3598
2983 3827
2983 3918
2983 4048
2983 5824
2983 6249
2983 6625
2983 9318
2983 9408
2983 9445
2984 4815
2984 5265
2984 5847
2984 6517
2984 6547
2984 6714
2984 7446
2984 8600
2985 3820
2985 6570
2985 8844
2986 3705
2986 3746
2986 4104
2986 4465
2986 5823
2986 5955
2986 7049
2986 7218
2986 9468
2987 3191
2987 4859
2987 4892
2987 5786
2987 5910
2987 6098
2987 7585
2987 8009
2987 8013
2987 8997
2988 3006
2988 3031
2988 3040
2988 3429
2988 4217
2988 4419
2988 5092
2988 5828
2988 7430
2988 7691
2988 8013
2988 8020
2988 9529
2988 9641
2989 3258
2989 4006
2989 4216
2989 4998
2989 7910
2989 8047
2989 9712
2990 3003
2990 3555
2990 4043
2990 4456
2990 4894
2990 4962
2990 6616
2990 6982
2990 8031
2990 8658
2990 8764
2991 3089
2991 3139
2991 3239
2991 3606
2991 3713
2991 3859
2991 5234
2991 5774
2991 6000
2991 7044
2991 8209
2991 8505
2991 9082
2991 9262
2992 3001
2992 4983
2992 5951
2993 3123
2993 3332
2993 4808
2993 5493
2993 7253
2993 8919
2994 5336
2994 5729
2994 6371
2994 7869
2994 9632
2995 6936
2995 9123
2995 9347
2996 3338
2996 4210
2996 4612
2996 4822
2996 5442
2996 6070
2996 6809
2996 8369
2996 8913
2996 9036
2996 9086
2996 9159
2996 9249
2996 9552
2997 3194
2997 3328
2997 3514
2997 3608
2997 4199
2997 4985
2998 3022
2998 3548
2998 3756
2998 3776
2998 4309
2998 4345
2998 4686
2998 5221
2998 5330
2998 5378
2998 5469
2998 5904
2998 5991
2998 6952
2998 7671
2998 8170
2998 9776
2999 3286
2999 3612
2999 4903
2999 5763
2999 6218
2999 7562
2999 8003
2999 8317
2999 9314
3000 3244
3000 3727
3000 3956
3000 4020
3000 4079
3000 4814
3000 5281
3000 5375
3000 5743
3000 5861
3000 6001
3000 6041
3000 6402
3000 6632
3000 6897
3000 8404
3001 4334
3001 4531
3001 8296
3002 3327
3002 3659
3002 4040
3002 4926
3002 5944
3002 6742
3002 8157
3003 3990
3003 4175
3003 4393
3003 5928
3003 6346
3003 7106
3004 3461
3004 4601
3004 6731
3004 9814
3005 3418
3005 3816
3005 7050
3005 7281
3005 8539
3006 6819
3006 9643
3007 3216
3007 6371
3007 7650
3007 8256
3007 8956
3007 9828
3008 3461
3008 4463
3008 5221
3008 6356
3008 7921
3008 8171
3008 8631
3008 9184
3008 9586
3008 9651
3009 3067
3009 3140
3009 3712
3009 3993
3009 4417
3009 5228
3009 5410
3009 6256
3009 7076
3009 7321
3009 7985
3009 7987
3009 8252
3009 8715
3009 9252
3009 9425
3010 3374
3010 3459
3010 3814
3010 4510
3010 5379
3010 6164
3010 6434
3010 6776
3010 7168
3010 7560
3010 7771
3010 8056
3010 8749
3010 8939
3010 9622
3011 3159
3011 3283
3011 3349
3011 3857
3011 4271
3011 4693
3011 5590
3011 5740
3011 5919
3011 7579
3011 8528
3011 9085
3011 9841
3012 3025
3012 3671
3012 3827
3012 3884
3012 4770
3012 5558
3012 5635
3012 5715
3012 6125
3012 7949
3012 8306
3013 6018
3013 6443
3013 7868
3013 7927
3013 8571
3013 9578
3014 3089
3014 3218
3014 3787
3014 3961
3014 4679
3014 4783
3014 4838
3014 4889
3014 7134
3014 8923
3014 8984
3015 3335
3015 3662
3015 4343
3015 4475
3015 6604
3015 7108
3015 8183
3015 9544
3015 9881
3016 3188
3016 3410
3016 3415
3016 3500
3016 3711
3016 3719
3016 4322
3016 4809
3016 5001
3016 6095
3016 6514
3016 6635
3016 7305
3016 7357
3016 7433
3016 8546
3016 9384
3016 9608
3016 9775
3017 3305
3017 6306
3017 8548
3017 9432
3018 4206
3018 5475
3018 5788
3018 5825
3018 6033
3018 6523
3018 6612
3018 6938
3018 7272
3018 8139
3018 8257
3018 8285
3018 8286
3018 8495
3019 3403
3019 3918
3019 7347
3019 8554
3019 9730
3020 3965
3020 4262
3020 4303
3020 4577
3020 4736
3020 5419
3020 5852
3020 5964
3020 5968
3021 4017
3021 4244
3021 4833
3021 6334
3021 7708
3021 8196
3022 3479
3022 3737
3022 4513
3022 4697
3022 5576
3022 5818
3022 6410
3022 6669
3022 8277
3022 9004
3023 3080
3023 3354
3023 4083
3023 6229
3023 7012
3023 7684
3023 7898
3023 8140
3023 8154
3023 9337
3023 9533
3024 3211
3024 3286
3024 3565
3024 4703
3024 6268
3024 7863
3024 8378
3024 8471
3025 5275
3025 5538
3025 5941
3025 6060
3025 7189
3025 9615
3026 3635
3026 4359
3026 5003
3026 5151
3026 5163
3026 6346
3026 7422
3026 7742
3026 7940
3026 8193
3026 8661
3026 9260
3027 3222
3027 3398
3027 4565
3027 5155
3027 8245
3027 9870
3028 3071
3028 4265
3028 4915
3028 5535
3028 7547
3028 7968
3028 9063
3029 3097
3029 3266
3029 3894
3029 4948
3029 5093
3029 5959
3029 6181
3029 6667
3029 8145
3029 8309
3030 3440
3030 3949
3030 4775
3030 5087
3030 5504
3030 5910
3030 6585
3030 6841
3030 9101
3030 9156
3031 3642
3031 3746
3031 7021
3031 7527
3031 8118
3031 8289
3031 8722
3031 8941
3032 3922
3032 4001
3032 4095
3032 4938
3032 5651
3032 7528
3032 7599
3032 8791
3032 8827
3033 3193
3033 3789
3033 4074
3033 5268
3033 5879
3033 6863
3033 7111
3033 9073
3033 9153
3034 3476
3034 3489
3034 3739
3034 5120
3034 6842
3035 3048
3035 3098
3035 3908
3035 3921
3035 4133
3035 4352
3035 4388
3035 4845
3035 5092
3035 5148
3035 6333
3035 6488
3035 6976
3035 7023
3035 7229
3035 7364
3035 7915
3035 8127
3035 9154
3036 4165
3036 4240
3036 4490
3036 4840
3036 5088
3036 5639
3036 6495
3036 6601
3036 7452
3036 8080
3036 8268
3036 8487
3036 8891
3036 9494
3037 3324
3037 3703
3037 4874
3037 5206
3037 5958
3037 6288
3037 6698
3037 7095
3037 7542
3037 7890
3037 9068
3037 9072
3037 9281
3038 4907
3038 5258
3038 5764
3038 6481
3038 6857
3038 6958
3038 8331
3038 9885
3039 3881
3039 4945
3039 7090
3039 8374
3039 9611
3039 9789
3040 3643
3040 3744
3040 4138
3040 4227
3040 5890
3040 7618
3040 7708
3040 7934
3040 9689
3041 3125
3041 3317
3041 3480
3041 4376
3041 4816
3041 6492
3041 7096
3041 8186
3041 9160
3042 3877
3042 5994
3042 6184
3042 7171
3043 3195
3043 4147
3043 4532
3043 5048
3043 7609
3043 8201
3044 3362
3044 3515
3044 3894
3044 4184
3044 5328
3044 5536
3044 6485
3044 8134
3044 8966
3044 9072
3045 3254
3045 3901
3045 3967
3045 4351
3045 4732
3045 4808
3045 4864
3045 5395
3045 5781
3045 6480
3045 9125
3045 9240
3046 3945
3046 4289
3046 4489
3046 9113
3047 5622
3047 6058
3047 7454
3048 3120
3048 3304
3048 6341
3048 9368
3049 3234
3049 3270
3049 3356
3049 3554
3049 5316
3049 7367
3049 9989
3050 3378
3050 4459
3050 4745
3050 6562
3051 4241
3051 5364
3051 5368
3051 6499
3051 8410
3051 9926
3052 3771
3052 4331
3052 6111
3052 6427
3052 6525
3052 7193
3052 8446
3052 9299
3052 9329
3053 5845
3053 6209
3053 7735
3053 8178
3053 8280
3053 9466
3054 4405
3054 5114
3054 5845
3054 5899
3054 6633
3054 6736
3054 7561
3054 8378
3054 9596
3055 3206
3055 3236
3055 3785
3055 3985
3055 4333
3055 4561
3055 4585
3055 4917
3055 4926
3055 4965
3055 5096
3055 5819
3055 6039
3055 7415
3055 7521
3055 8182
3055 8419
3055 8968
3056 3241
3056 6387
3056 6908
3056 7172
3056 8603
3056 9125
3056 9592
3056 9818
3057 3562
3057 3584
3057 4993
3057 5757
3057 7061
3057 7194
3057 7254
3057 7502
3057 8300
3058 4535
3058 4822
3058 5200
3058 5976
3058 6939
3058 6972
3058 7263
3058 8611
3058 9403
3058 9443
3058 9618
3059 3180
3059 3864
3059 3980
3059 4733
3059 4923
3059 5318
3059 5399
3059 6026
3059 6201
3059 7093
3059 9696
3060 4497
3060 4587
3060 6677
3060 6795
3061 3798
3061 4023
3061 4473
3061 5488
3061 6773
3061 8593
3061 9767
3062 3825
3063 3097
3063 3798
3063 4066
3063 6459
3063 6820
3063 7128
3063 7512
3063 7931
3063 8146
3063 8535
3063 9752
3063 9875
3064 3680
3064 4316
3064 6195
3064 6480
3064 8498
3064 9117
3065 5043
3065 5719
3065 6133
3065 6158
3065 6367
3065 6542
3065 7900
3065 8306
3065 8737
3066 3105
3066 3204
3066 3485
3066 3741
3066 8296
3066 8781
3066 8814
3066 9226
3066 9328
3067 3392
3067 3788
3067 4109
3067 5512
3067 5852
3067 8909
3068 3649
3068 4564
3068 4669
3068 4905
3068 5368
3068 9971
3069 4108
3069 4197
3069 4711
3069 5020
3069 6298
3069 6994
3069 8089
3069 9156
3069 9356
3070 3166
3070 4155
3070 5248
3070 6249
3071 3082
3071 4579
3072 3835
3072 4131
3072 4239
3072 4541
3072 5363
3072 6673
3072 7891
3072 9062
3072 9399
3072 9510
3073 3448
3073 3926
3073 4516
3073 5307
3073 5334
3073 9078
3073 9358
3074 5462
3074 5877
3074 6844
3074 8231
3075 4378
3075 7396
3076 3752
3076 4345
3076 5427
3076 5732
3076 6439
3076 8713
3076 9035
3076 9145
3077 3080
3077 3323
3077 3570
3077 3697
3077 3827
3077 3925
3077 4657
3077 4712
3077 4797
3077 4905
3077 5080
3077 5235
3077 5278
3077 5343
3077 5413
3077 6244
3077 6940
3077 8044
3077 8340
3077 9122
3077 9708
3078 4342
3078 4543
3078 4720
3078 4739
3078 4899
3078 5518
3078 6650
3078 6992
3078 7945
3078 9164
3079 3122
3079 3612
3079 3613
3079 3754
3079 7210
3080 3721
3080 3953
3080 4197
3080 4401
3080 5865
3080 6725
3080 6930
3080 7510
3080 9230
3080 9395
3080 9885
3080 9914
3081 3338
3081 3583
3081 3957
3081 3990
3081 4380
3081 4837
3081 6023
3081 6915
3081 7263
3081 7455
3081 7659
3081 9102
3082 4994
3082 6383
3082 7248
3082 8847
3082 9332
3083 3838
3083 4005
3083 4360
3083 4604
3083 5606
3083 6186
3083 6456
3083 7887
3083 8069
3083 8415
3083 8695
3083 8739
3083 9275
3083 9531
3084 3132
3084 3327
3084 3540
3084 5503
3084 5522
3084 5651
3084 6352
3084 6798
3084 7900
3084 9074
3084 9383
3085 4128
3085 4989
3085 6005
3086 6609
3086 8762
3086 8859
3086 9852
3087 3199
3087 3331
3087 4424
3087 6462
3087 9833
3088 3881
3088 4297
3088 4620
3088 8013
3088 8260
3089 3762
3089 3999
3089 4163
3089 4648
3089 4727
3089 4797
3089 5118
3089 5638
3089 6300
3089 7245
3089 7995
3089 8642
3089 8905
3089 9054
3090 3167
3090 3806
3090 7030
3090 7271
3090 7657
3090 8018
3091 3432
3091 3792
3091 3805
3091 6586
3091 6665
3091 6912
3091 9315
3092 3488
3092 4131
3092 4722
3092 5241
3092 7144
3092 7678
3092 7711
3092 8019
3092 8963
3093 4461
3093 4601
3093 4743
3093 4792
3093 5210
3093 5215
3093 5527
3093 5986
3093 6100
3093 7073
3093 7276
3093 7770
3093 7879
3093 7936
3093 8003
3093 8357
3093 8868
3093 9724
3093 9879
3094 3840
3094 4228
3094 4897
3094 4993
3094 6023
3094 7026
3094 9886
3095 3574
3095 4519
3095 5058
3095 5112
3095 5318
3095 5637
3095 6024
3095 6075
3095 6229
3095 7776
3095 7866
3095 9706
3096 3137
3096 3372
3096 3627
3096 3993
3096 4952
3096 6397
3096 6786
3096 7243
3096 8839
3096 9952
3097 3139
3097 3261
3097 3481
3097 4031
3097 4639
3097 6375
3097 7750
3097 7838
3097 7903
3097 8434
3097 8440
3097 8521
3097 9047
3097 9283
3097 9659
3097 9732
3098 3834
3098 3836
3098 3856
3098 6414
3098 6891
3098 7519
3098 7614
3098 9246
3098 9780
3099 3174
3099 6272
3099 6890
3099 7728
3099 7945
3099 8248
3100 3239
3100 3467
3100 3941
3100 4083
3100 6249
3100 7030
3100 8846
3100 8929
3100 9323
3100 9570
3100 9791
3101 4068
3101 4882
3101 6170
3101 6894
3101 7156
3101 7432
3102 3327
3102 3761
3102 3831
3102 4726
3102 5027
3102 5737
3102 5752
3102 5831
3102 6145
3102 6402
3102 6754
3102 7394
3102 7462
3102 9292
3103 4402
3103 5672
3103 7192
3103 9440
3103 9707
3104 5292
3104 6840
3104 7016
3104 9276
3105 3712
3105 3956
3105 3966
3105 4330
3105 5306
3105 7488
3105 7719
3105 8971
3106 3285
3106 4481
3106 5542
3106 5568
3106 5922
3106 8496
3106 9056
3106 9273
3107 3133
3107 3607
3107 4255
3107 4419
3107 5850
3107 7569
3108 3233
3108 4068
3108 5006
3108 5348
3108 7753
3108 7944
3108 8919
3108 9993
3109 3907
3109 4126
3109 5948
3109 7626
3109 7873
3109 8330
3109 8766
3109 8914
3110 3171
3110 3676
3110 4482
3110 5010
3110 5012
3110 5067
3110 5600
3110 6703
3110 7233
3110 7416
3110 7723
3110 8276
3110 8950
3110 9106
3111 4573
3111 5310
3111 5991
3111 7350
3111 8016
3111 8675
3111 9711
3112 4063
3112 4282
3112 5522
3112 5654
3112 7990
3112 8219
3112 8835
3113 3900
3113 4516
3113 5671
3113 6385
3113 7174
3113 8080
3113 8296
3113 9703
3114 5143
3114 6204
3114 8675
3114 9135
3115 3384
3115 3409
3115 3626
3115 3968
3115 4228
3115 4675
3115 5656
3115 5874
3115 6180
3115 6787
3115 7684
3115 7896
3115 7917
3116 4296
3116 5263
3116 6175
3116 6788
3116 7465
3116 9543
3116 9609
3116 8032
3117 3526
3117 4911
3117 4949
3117 5822
3117 8502
3117 9532
3117 9983
3118 3352
3118 4186
3118 5029
3118 7776
3118 7815
3118 7854
3118 8492
3118 9003
3118 9972
3119 3161
3119 4125
3119 4148
3119 5169
3119 5689
3119 6153
3119 9479
3120 3948
3120 4358
3120 5840
3120 6614
3120 8341
3120 8377
3120 8439
3120 9114
3120 9584
3121 3217
3121 3472
3121 4754
3121 4908
3121 5014
3121 5242
3121 5707
3121 5893
3121 5985
3121 8315
3121 8869
3121 9268
3121 9786
3122 3531
3122 4447
3122 8871
3122 9721
3123 3327
3123 6416
3123 8675
3124 5743
3124 6956
3124 7149
3124 9963
3125 3166
3125 3538
3125 3734
3125 5166
3125 5726
3125 6121
3125 6574
3125 7312
3125 7628
3126 5092
3126 5119
3126 7707
3127 5464
3127 7439
3127 8794
3127 9031
3127 9807
3128 3550
3128 5533
3128 5640
3129 9364
3130 3433
3130 3479
3130 4078
3130 6120
3130 6347
3130 8414
3130 8815
3131 3611
3131 3785
3131 4399
3131 4400
3131 4737
3131 7332
3131 7488
3131 8323
3131 8357
3131 8397
3131 9434
3132 3320
3132 6604
3132 6887
3132 6979
3132 7565
3132 9312
3133 3357
3133 3383
3133 3446
3133 3638
3133 3653
3133 3884
3133 3972
3133 4067
3133 4294
3133 4296
3133 4733
3133 5364
3133 5879
3133 7622
3133 7936
3133 8328
3133 8361
3133 8750
3133 9859
3134 3288
3134 3475
3134 3687
3134 4391
3134 5191
3134 5434
3134 5541
3134 5874
3134 6474
3134 6959
3134 7907
3134 8303
3134 8403
3135 3797
3135 4017
3135 4380
3135 5947
3135 6248
3135 6794
3135 6999
3135 7872
3135 8454
3135 9618
3135 9745
3136 3518
3136 6592
3136 8353
3136 9250
3136 9472
3137 4783
3137 5005
3137 5525
3137 5666
3137 7035
3137 8162
3138 3196
3138 4254
3138 4655
3138 4931
3138 6374
3138 7482
3138 7690
3138 8359
3138 9855
3139 3532
3139 3884
3139 4403
3139 5025
3139 5390
3139 5459
3139 5850
3139 6104
3139 6180
3139 6305
3139 6867
3139 6941
3139 7066
3139 8519
3139 8594
3140 3148
3140 3547
3140 3731
3140 5320
3140 7629
3140 9356
3141 3223
3141 3647
3141 4603
3141 4832
3141 6633
3141 7774
3141 9724
3142 4030
3142 4434
3142 4580
3142 4641
3142 5094
3142 5387
3142 8144
3142 9573
3143 3904
3143 4974
3143 5192
3143 5248
3143 5749
3143 7270
3143 7444
3143 8097
3143 8649
3143 8940
3144 3262
3144 3691
3144 4705
3144 6215
3144 6624
3144 6842
3144 7875
3144 8310
3144 8740
3145 3189
3145 3289
3145 3905
3145 3906
3145 4695
3145 6054
3145 6589
3145 6891
3145 7809
3145 8332
3145 9051
3146 3678
3146 3977
3146 8162
3146 8866
3146 9988
3147 3294
3147 5204
3147 7639
3147 7754
3148 3248
3148 3353
3148 3750
3148 3751
3148 4366
3148 4450
3148 4542
3148 5109
3148 5358
3148 5738
3148 6428
3148 7294
3148 7765
3149 3496
3149 5905
3149 7458
3149 8747
3149 9909
3149 9945
3150 4139
3150 4810
3150 5204
3150 5938
3150 6090
3150 6531
3150 7084
3150 8758
3150 9750
3150 7480
3151 5697
3151 6158
3151 7028
3151 9146
3151 9323
3152 3835
3152 4035
3152 4970
3152 5622
3152 6208
3152 6235
3152 6304
3152 6442
3152 9744
3153 3622
3153 5171
3153 5479
3153 6579
3153 7014
3153 7469
3153 7959
3153 8504
3153 8668
3153 9751
3154 3424
3154 7769
3154 9514
3155 3480
3155 3595
3155 3643
3155 4157
3155 5152
3155 5170
3155 5808
3155 6588
3155 6777
3155 7061
3155 9756
3156 4680
3156 4964
3156 5271
3156 5945
3156 6238
3156 7389
3156 8177
3156 9760
3157 3357
3157 3450
3157 3879
3157 4118
3157 4616
3157 4836
3157 5093
3157 5254
3157 5746
3157 8110
3157 9106
3157 9323
3158 3425
3158 3463
3158 3548
3158 3688
3158 3721
3158 4020
3158 4757
3158 4829
3158 5244
3158 5388
3158 6202
3158 6436
3158 6536
3158 7930
3158 7939
3158 8222
3158 8681
3158 8987
3159 4595
3159 6789
3159 7598
3159 7778
3159 8001
3159 9024
3160 3328
3160 3933
3160 4072
3160 4086
3160 4183
3160 5014
3160 5674
3160 6570
3160 8266
3161 4132
3161 6707
3161 6959
3162 5283
3162 5403
3162 6927
3162 6988
3162 7075
3162 8684
3162 9312
3163 3282
3163 4103
3163 5056
3163 5181
3163 5415
3163 7059
3163 7164
3163 8280
3163 8686
3163 8879
3164 3551
3164 3660
3164 4463
3164 4747
3164 4932
3164 5016
3164 5144
3164 8983
3165 4392
3165 5649
3165 6970
3165 9121
3165 9201
3166 3583
3166 4060
3166 5262
3166 5453
3166 5692
3166 6697
3166 7244
3166 9015
3166 9188
3167 3435
3167 4786
3167 5655
3167 5692
3167 6086
3167 8407
3167 8642
3168 3208
3168 3323
3168 3523
3168 4225
3168 7877
3168 8408
3168 9783
3168 9835
3169 3408
3169 3687
3169 4731
3169 4929
3169 5130
3169 5533
3169 7478
3169 7496
3169 8401
3170 5799
3170 9055
3170 9219
3170 9313
3171 3195
3171 4373
3171 4422
3171 6053
3171 6693
3171 8884
3172 4535
3172 4858
3172 5714
3172 7614
3172 7649
3172 7740
3172 8281
3172 8630
3173 3585
3173 4947
3173 5960
3173 7283
3173 8274
3173 9241
3174 3212
3174 3584
3174 3647
3174 4127
3174 4353
3174 5969
3174 6450
3174 7289
3174 8300
3174 8484
3174 9121
3175 3420
3175 3964
3175 4027
3175 5146
3175 5832
3175 5871
3175 6741
3175 8227
3175 9068
3175 9185
3175 9789
3176 3585
3176 4563
3176 4674
3176 5311
3176 6779
3176 7495
3176 7600
3177 3636
3177 3954
3177 4545
3177 4982
3177 8035
3177 9020
3178 4348
3178 5008
3178 5136
3178 5934
3178 6218
3178 7845
3178 8004
3178 8337
3178 9394
3179 3394
3179 3606
3179 4172
3179 5068
3179 5142
3179 5148
3179 5345
3179 5925
3179 6160
3180 3327
3180 3394
3180 5811
3180 6249
3180 6972
3180 7013
3180 8477
3181 4209
3181 4562
3181 4923
3181 5843
3181 5848
3181 6391
3181 6894
3181 9222
3181 9261
3182 3607
3182 5169
3182 6461
3182 6986
3182 7615
3182 8874
3182 9198
3183 3854
3183 3914
3183 6883
3183 8247
3183 8608
3183 8680
3184 4338
3184 4679
3184 4793
3184 4961
3184 4968
3184 5019
3184 5938
3184 6710
3184 8801
3184 9355
3184 9930
3185 3493
3185 3543
3185 3779
3185 4409
3185 5063
3185 5937
3185 5969
3185 5980
3185 6258
3185 6399
3185 7089
3185 7919
3185 7992
3185 9958
3186 5291
3186 5339
3186 5554
3186 5882
3186 6451
3186 6848
3186 6921
3186 7064
3186 7970
3186 8159
3186 9545
3186 9883
3187 3206
3187 3280
3187 3324
3187 4740
3187 4971
3187 6327
3187 6482
3187 6494
3187 8344
3187 9436
3187 9638
3188 4529
3188 5635
3188 6917
3188 7008
3188 8255
3188 8299
3188 8388
3188 8600
3188 8816
3189 6020
3189 6393
3189 8169
3190 3203
3190 3209
3190 3889
3190 5585
3190 6016
3190 6027
3190 6515
3190 6689
3190 7319
3190 8903
3190 9126
3191 4059
3191 4097
3191 4597
3191 4631
3191 5366
3191 6585
3191 8734
3192 5189
3192 5472
3192 5729
3192 5806
3192 8440
3192 8900
3192 9463
3192 9773
3193 3352
3193 5392
3193 6829
3193 6929
3193 9517
3194 3541
3194 3559
3194 3598
3194 4192
3194 4531
3194 5008
3194 5421
3194 7722
3194 7861
3194 9435
3194 9943
3195 3408
3195 4663
3195 5273
3195 6561
3195 8739
3196 3290
3196 3721
3196 4069
3196 4827
3196 6230
3196 6911
3196 7645
3196 9507
3196 9546
3197 3421
3197 3951
3197 7746
3197 8422
3197 8831
3197 8989
3198 3589
3198 6327
3198 9568
3199 4505
3199 5546
3199 5670
3199 6679
3199 6811
3199 7940
3200 3488
3200 3553
3200 3984
3200 4316
3200 4458
3200 4636
3200 5378
3200 5736
3200 5771
3200 5880
3200 6407
3200 8010
3200 9912
3201 3286
3201 3317
3201 3946
3201 4414
3201 9134
3202 5888
3202 6146
3203 3399
3203 3465
3203 3803
3203 4135
3203 4653
3203 5914
3203 6164
3203 6336
3203 6654
3203 6750
3203 6914
3203 6918
3203 7442
3203 8149
3203 8252
3203 8392
3203 9196
3204 3664
3204 4803
3204 5895
3204 8748
3204 9703
3205 3628
3205 3958
3205 4278
3205 4448
3205 5188
3205 5859
3205 6201
3205 6499
3205 7195
3205 7803
3205 8107
3205 8153
3205 8689
3205 8728
3205 9035
3205 9198
3205 9343
3206 3557
3206 3560
3206 3699
3206 4654
3206 4991
3206 5428
3206 7102
3206 7738
3206 8240
3206 8533
3206 8810
3206 8915
3206 9853
3207 5149
3207 5563
3207 7529
3207 8259
3207 8792
3207 8808
3207 9749
3208 4096
3208 4232
3208 4648
3208 5289
3208 5312
3208 5496
3208 9523
3209 3306
3209 3679
3209 3869
3209 4791
3209 5178
3209 5567
3209 5919
3209 6040
3209 6405
3209 7207
3209 7232
3209 7640
3209 7662
3209 7962
3209 8020
3209 8044
3209 8141
3209 8304
3210 3477
3210 4586
3210 7816
3210 9071
3211 3533
3211 4166
3211 4270
3211 5163
3211 5336
3211 6419
3211 8144
3211 9831
3212 3282
3212 5059
3212 5815
3213 3330
3213 3566
3213 3656
3213 3754
3213 4095
3213 4807
3213 5061
3213 6070
3213 8272
3213 8876
3213 8974
3214 3298
3214 3929
3214 4436
3214 5064
3214 5631
3214 5641
3214 6709
3214 7277
3214 7336
3214 8471
3215 3397
3215 3562
3215 3667
3215 4034
3215 4331
3215 4906
3215 5461
3215 7584
3215 7903
3215 9620
3216 4135
3216 5090
3216 5571
3216 6387
3216 6648
3216 6807
3216 7778
3216 9576
3217 3960
3217 3987
3217 4808
3217 5162
3217 5288
3217 5851
3217 6252
3217 6395
3217 7050
3217 7283
3217 8953
3217 9441
3217 9725
3217 9794
3218 4936
3218 5635
3218 7443
3218 8387
3218 9581
3219 3772
3219 4434
3219 4602
3219 5736
3219 6340
3220 4655
3220 6398
3220 8365
3221 3763
3221 4093
3221 4247
3221 4650
3221 4992
3221 5157
3221 5187
3221 5298
3221 5492
3221 5665
3221 5723
3221 5968
3221 6241
3221 6250
3221 6748
3221 7209
3221 7976
3221 8730
3221 9275
3221 9502
3222 3225
3222 4274
3222 4958
3222 6663
3222 6670
3223 4028
3223 4033
3223 4392
3223 4704
3223 5257
3223 5417
3223 8061
3224 3468
3224 3756
3224 4683
3224 4819
3224 7326
3224 8882
3224 9739
3225 3244
3225 8353
3225 9136
3225 9506
3225 9673
3226 4007
3226 4168
3226 4242
3226 4616
3226 5531
3226 5701
3227 3820
3227 3894
3227 4255
3227 4446
3227 4879
3227 4949
3227 5249
3227 5615
3227 6736
3227 8200
3228 4332
3228 4427
3228 4582
3228 7186
3228 7302
3228 7373
3228 9069
3229 3361
3229 5853
3229 5859
3229 6540
3229 9034
3230 3379
3230 3683
3230 3899
3230 4345
3230 5823
3230 6164
3230 6188
3230 6958
3230 7983
3230 8179
3230 8870
3230 9678
3231 4772
3231 7441
3232 3693
3232 4348
3232 4616
3232 5616
3232 6919
3232 7077
3232 7712
3232 8169
3232 8452
3232 9181
3233 3799
3233 3955
3233 4193
3233 5156
3233 5298
3233 5576
3233 6135
3233 6148
3233 8640
3233 9562
3233 9629
3234 3866
3234 4061
3234 5295
3234 5659
3234 9021
3235 3301
3235 6312
3235 9397
3235 9473
3236 4095
3236 4373
3236 7163
3236 7646
3236 8058
3236 9334
3236 9713
3236 9853
3237 3428
3237 3571
3237 4860
3237 4902
3237 7628
3237 7803
3237 8344
3238 3562
3238 3829
3238 5367
3238 7400
3238 9193
3238 9486
3239 3336
3239 4113
3239 4534
3239 5095
3239 7352
3239 7388
3239 7816
3239 8495
3239 8738
3239 9777
3240 3368
3240 3598
3240 3688
3240 3821
3240 6684
3240 7673
3240 8034
3240 8439
3240 8606
3241 3272
3241 3917
3241 3922
3241 4161
3241 5220
3241 5470
3241 5672
3241 6434
3241 8765
3242 4728
3242 5927
3242 6115
3242 6504
3242 7264
3242 8183
3242 8783
3243 3303
3243 3363
3243 3526
3243 3528
3243 3633
3243 3873
3243 3890
3243 4164
3243 4356
3243 4917
3243 5184
3243 5224
3243 5663
3243 6282
3243 7117
3243 8842
3243 8956
3244 3908
3244 4230
3244 6246
3244 6265
3244 6464
3244 7608
3244 9402
3244 9499
3244 9546
3244 3270
3245 3431
3245 4008
3245 4648
3245 6118
3245 7768
3245 8890
3245 9307
3245 9799
3246 6549
3246 7621
3247 3388
3247 4823
3247 4994
3247 6210
3247 6722
3247 8944
3248 3993
3248 4099
3248 4836
3248 8248
3248 9273
3248 9907
3249 3401
3249 4915
3249 5162
3249 5224
3249 5309
3249 5564
3249 7532
3249 8423
3249 9518
3250 3370
3250 3859
3250 4347
3250 4440
3250 4470
3250 5508
3250 6507
3250 6785
3250 7067
3250 7107
3250 7522
3250 9085
3251 3895
3251 4665
3251 5413
3251 5447
3251 6253
3251 6493
3251 6868
3251 7088
3251 7091
3251 7353
3252 3367
3252 3826
3252 4137
3252 4879
3252 4895
3252 5320
3252 5746
3252 9849
3253 3447
3253 4259
3253 4262
3253 4789
3253 5528
3253 5809
3253 5956
3253 6304
3253 9393
3253 9742
3254 3687
3254 4069
3254 4447
3254 4497
3254 4807
3254 5455
3254 5861
3254 6869
3254 8336
3255 3272
3255 3353
3255 4652
3255 5132
3255 6186
3255 6205
3255 6314
3255 6370
3255 7126
3255 7412
3255 8559
3255 9884
3256 3644
3256 4878
3256 5708
3256 5884
3256 7527
3256 7613
3256 8006
3256 8606
3256 9876
3257 3961
3257 4327
3257 4776
3257 4790
3257 4833
3257 6968
3257 7269
3257 7915
3257 8059
3257 8666
3257 8829
3257 9780
3258 5248
3258 6122
3258 7518
3258 7744
3258 8965
3259 3381
3259 3477
3259 3788
3259 4191
3259 4371
3259 4386
3259 4584
3259 5535
3259 6043
3260 3358
3260 3367
3260 4031
3260 4245
3260 4624
3260 5044
3260 5112
3260 5349
3260 5445
3260 5703
3260 5972
3260 6647
3260 6952
3260 7143
3260 7235
3260 8945
3261 3668
3261 4112
3261 4713
3261 5322
3261 6159
3261 6163
3261 7133
3261 8100
3261 8593
3261 9152
3261 9260
3261 9486
3261 9621
3261 9661
3261 9868
3262 3636
3262 3838
3262 4077
3262 4424
3262 4469
3262 4617
3262 4646
3262 5136
3262 7466
3262 7957
3262 8355
3262 9766
3262 9825
3262 9890
3263 5333
3263 5385
3263 5779
3263 5790
3263 6125
3263 6750
3263 7563
3263 7772
3263 9496
3263 9528
3264 3580
3264 4161
3264 4247
3264 4315
3264 4689
3264 4973
3264 6561
3264 7907
3264 8369
3265 4332
3265 5155
3265 5388
3265 6078
3265 7693
3265 9633
3266 3295
3266 3777
3266 4813
3266 7936
3266 9755
3267 3546
3267 3625
3267 4371
3267 7079
3268 3668
3268 4052
3268 5213
3268 5401
3269 6744
3269 7851
3270 4350
3270 4552
3270 4933
3271 4853
3271 4928
3271 5929
3271 6094
3271 6211
3271 6335
3271 6560
3271 6674
3271 6942
3271 7892
3271 8774
3271 9365
3271 9770
3272 4314
3272 4960
3272 5271
3272 5794
3272 8416
3272 8537
3272 8882
3273 3291
3273 4319
3273 5243
3273 5329
3273 6481
3273 6973
3273 7334
3273 3464
3274 4454
3274 4468
3274 4624
3274 5041
3274 6462
3274 7831
3275 3630
3275 4430
3275 5139
3275 5681
3275 6450
3275 9367
3275 9934
3276 3365
3276 6557
3276 8614
3277 3664
3277 3869
3277 4337
3277 4996
3277 5296
3277 5620
3277 6810
3277 6905
3277 7773
3278 3280
3278 3310
3278 3586
3278 3891
3278 4268
3278 4972
3278 5447
3278 5867
3278 6411
3278 7812
3278 8603
3279 4603
3279 5425
3279 6077
3279 6772
3280 5411
3280 5417
3280 6320
3280 7093
3280 9229
3281 3511
3281 4298
3281 4938
3281 5297
3281 5992
3281 6078
3281 7050
3281 8236
3281 8877
3281 9411
3281 9645
3281 9949
3282 4101
3282 4383
3282 7458
3282 8699
3283 4041
3283 4233
3283 4967
3283 4995
3283 8629
3283 9045
3283 9404
3284 3750
3284 3811
3284 3880
3284 4498
3284 4649
3284 4954
3284 5223
3284 5282
3284 6401
3284 6510
3284 7491
3284 9320
3284 9754
3284 9791
3285 3604
3285 3938
3285 4561
3285 5001
3285 6489
3285 7315
3285 7454
3285 7778
3285 7965
3285 8526
3285 8663
3286 5368
3286 6604
3286 6934
3286 9022
3286 9346
3286 9348
3286 9984
3286 9994
3287 3635
3287 3827
3287 4445
3287 5075
3287 8433
3288 3599
3288 5097
3288 7291
3288 7505
3288 8504
3289 3413
3289 3557
3289 4063
3289 4934
3289 6888
3289 8557
3289 9327
3290 3898
3290 4437
3290 4849
3290 5040
3290 7430
3290 7580
3291 3938
3291 5071
3291 5116
3291 7466
3291 8187
3291 8715
3291 8922
3292 5263
3292 6228
3292 7963
3292 8406
3293 3413
3293 3800
3293 4798
3293 5036
3293 5540
3293 5599
3294 5945
3294 6053
3294 6291
3294 6416
3294 7084
3294 8984
3295 3706
3295 5066
3295 5340
3295 6287
3296 3873
3296 4043
3296 6840
3296 7802
3296 8780
3297 4026
3297 4412
3297 4457
3297 5306
3297 7316
3297 8777
3298 4156
3298 4548
3298 4751
3298 5012
3298 5620
3298 7755
3298 9407
3298 9803
3299 4971
3299 5035
3299 5141
3299 5596
3299 7662
3299 8336
3300 3972
3300 4519
3300 4648
3300 4656
3300 4746
3300 5844
3300 7340
3301 4061
3301 4064
3301 5151
3301 8821
3301 9886
3302 3478
3302 4010
3302 4195
3302 4669
3302 5292
3302 5704
3302 6024
3302 7377
3302 7560
3302 7596
3302 9674
3303 4141
3303 4707
3303 5435
3303 6483
3303 6487
3303 7412
3303 8795
3303 8913
3303 8993
3303 9464
3304 4019
3304 4173
3304 5431
3304 5742
3304 6214
3304 6606
3304 6952
3304 7113
3304 7312
3304 8228
3304 8806
3304 9448
3305 4261
3305 4814
3306 4569
3306 6750
3306 8504
3306 8709
3307 3775
3307 4288
3307 4588
3307 8757
3308 3711
3308 3847
3308 4012
3308 4345
3308 4573
3308 4838
3308 5056
3308 6096
3308 8736
3309 3434
3309 3594
3309 4650
3309 4730
3309 5365
3309 6963
3309 7981
3309 7989
3310 5670
3310 6581
3310 6662
3310 6724
3310 9870
3311 3351
3311 3685
3311 3919
3311 3991
3311 4208
3311 4285
3311 4336
3311 4602
3311 4703
3311 4991
3311 5032
3311 5578
3311 5685
3311 5825
3311 6832
3311 9471
3311 9939
3312 3328
3312 4063
3312 4597
3312 4885
3312 9295
3312 9358
3313 4794
3313 8633
3313 8729
3313 8944
3313 9542
3314 4482
3314 4633
3314 4993
3314 5527
3314 5565
3314 6054
3314 6159
3314 6268
3314 6789
3314 7356
3314 8034
3314 8184
3314 8261
3314 8391
3314 8490
3314 9503
3315 4015
3315 4154
3315 4223
3315 4419
3315 5375
3315 7112
3315 9477
3316 3496
3316 3891
3316 3969
3316 4309
3316 4627
3316 5797
3316 7623
3316 8165
3316 8376
3316 8452
3316 8722
3316 8758
3317 5493
3317 6114
3317 7509
3317 8954
3317 9707
3318 3548
3318 3959
3318 4037
3318 5304
3318 5942
3318 6856
3318 7486
3318 8217
3319 3519
3319 4001
3319 4135
3319 4233
3319 4605
3319 5207
3319 5794
3319 6110
3319 6783
3319 8496
3319 8665
3319 9745
3320 3464
3320 3673
3320 4916
3320 7930
3320 8831
3321 3340
3321 3759
3321 4688
3321 4817
3321 5147
3321 6293
3322 3497
3322 3638
3322 4906
3322 5370
3322 7714
3322 8755
3322 9182
3323 4581
3323 5042
3323 5963
3323 6150
3323 9515
3324 3877
3324 4510
3324 4785
3324 7962
3324 8670
3325 4425
3325 4978
3325 5431
3325 6451
3326 4288
3326 6445
3326 6876
3326 7260
3326 7587
3326 7660
3326 8342
3326 9526
3327 3483
3327 3796
3327 3926
3327 4814
3327 5365
3327 6059
3327 9169
3328 5270
3328 6660
3328 7320
3329 3574
3329 3627
3329 3728
3329 3778
3329 3938
3329 4078
3329 4241
3329 5992
3329 7655
3329 8086
3330 3370
3330 3744
3330 4335
3331 3698
3331 5554
3331 7175
3332 4638
3332 5369
3332 5644
3332 6802
3332 6885
3332 7596
3332 7805
3332 8981
3333 3363
3333 4544
3333 5210
3333 5692
3333 6137
3333 6641
3333 6782
3333 7380
3333 8614
3333 8913
3333 9315
3333 9980
3334 3690
3334 3748
3334 5650
3334 5986
3334 6037
3334 6534
3334 7020
3334 7754
3334 8001
3334 8003
3334 9783
3335 3610
3335 3780
3335 4664
3335 5769
3335 6031
3335 8179
3335 8374
3335 9054
3335 9823
3336 3338
3336 3787
3336 4626
3336 4780
3336 4983
3336 5561
3336 6095
3336 6671
3336 8771
3336 8782
3336 9282
3337 4160
3337 6231
3337 7572
3337 8667
3338 3372
3338 5339
3338 5700
3338 6163
3338 6181
3338 7060
3338 7159
3338 7858
3338 8568
3338 8820
3338 9364
3338 9566
3339 4011
3339 4657
3339 6559
3339 7767
3339 9656
3340 3441
3340 3586
3340 3676
3340 4772
3340 5658
3340 6125
3340 6546
3341 4110
3341 4709
3341 6167
3341 7623
3342 3449
3342 4382
3342 7161
3342 9305
3343 3460
3343 3474
3343 3520
3343 3753
3343 5018
3343 5062
3343 5951
3343 6198
3343 6394
3343 7033
3343 7037
3343 7616
3343 8085
3343 8265
3343 8577
3344 5673
3344 5863
3344 6120
3344 6946
3344 7400
3344 9207
3344 9928
3345 4172
3345 4422
3345 4781
3345 6336
3345 6617
3345 8690
3345 9694
3345 9826
3345 9985
3346 3846
3346 4741
3346 5994
3346 7222
3347 4899
3347 4952
3347 5541
3347 6063
3347 6670
3347 6714
3347 6884
3347 8085
3348 3477
3348 4322
3348 5552
3348 6332
3348 6476
3348 8693
3348 9195
3348 9538
3349 4247
3349 5252
3349 7406
3349 7694
3349 7794
3349 7950
3350 5799
3350 8618
3351 4551
3351 4887
3351 5217
3351 5427
3351 5753
3351 6717
3351 7443
3351 7505
3352 3593
3352 4863
3352 9533
3353 4214
3353 4558
3353 4580
3353 5269
3353 8117
3353 9493
3353 9780
3354 8141
3355 3420
3355 3527
3355 4724
3355 5057
3355 5150
3355 5340
3355 5426
3355 5629
3355 6847
3355 7067
3355 7968
3355 8001
3355 9047
3355 9246
3356 3666
3356 3870
3356 3884
3356 4258
3356 4595
3356 4851
3356 6095
3356 7200
3356 8208
3356 8253
3356 9732
3357 6590
3357 7845
3357 8141
3357 9720
3358 3660
3358 5392
3358 5727
3358 9871
3359 3386
3359 3488
3359 4623
3359 4771
3359 4790
3359 5279
3359 5481
3359 6986
3359 7193
3359 7746
3359 7879
3359 8872
3359 9006
3360 3759
3360 4303
3360 4746
3360 4922
3360 5438
3360 5491
3360 6007
3360 6632
3360 6774
3360 6900
3360 8017
3360 8031
3360 8931
3360 9669
3360 9720
3361 4440
3361 4595
3361 4768
3361 5799
3361 5903
3361 6192
3361 6920
3361 7487
3361 7621
3361 8246
3362 6239
3362 7923
3363 3516
3363 3608
3363 4078
3363 4839
3363 6478
3363 7881
3363 8756
3363 9697
3364 8975
3364 8977
3365 6429
3365 9210
3366 6454
3366 6947
3366 7084
3366 7154
3367 3453
3367 4843
3367 7351
3367 7576
3367 8633
3367 9264
3368 3790
3368 3833
3368 4080
3368 4114
3368 4157
3368 4183
3368 4237
3368 5566
3368 5702
3368 6129
3368 7429
3368 7768
3368 8185
3368 9998
3369 3828
3369 5504
3369 7192
3369 7665
3369 7897
3369 9828
3370 5150
3370 7279
3371 3580
3372 3912
3372 5492
3372 6265
3372 6547
3372 7146
3372 8687
3372 9291
3373 3764
3373 4156
3373 4285
3373 4408
3373 5021
3373 7160
3373 8311
3373 9674
3374 3659
3374 3674
3374 3933
3374 4092
3374 4354
3374 5136
3374 5175
3374 5326
3374 5351
3374 5446
3374 6358
3374 6401
3374 6532
3374 6689
3374 7196
3374 7726
3374 8705
3375 3424
3375 3846
3375 3870
3375 3999
3375 5140
3375 5367
3375 5467
3375 6070
3375 6357
3375 7140
3375 7962
3375 9362
3375 9620
3376 3386
3376 7865
3376 8965
3377 3398
3377 5719
3377 6737
3377 7631
3377 8883
3378 3786
3378 4908
3378 5316
3378 5764
3378 6668
3378 6669
3378 7508
3378 9276
3379 3469
3379 4762
3379 5855
3379 9519
3380 4162
3380 5524
3380 5767
3380 5977
3380 7036
3380 7486
3380 7796
3380 9204
3381 4493
3381 6838
3381 7992
3382 3983
3382 4498
3382 5625
3382 7529
3382 7611
3382 7648
3382 7760
3382 8048
3383 3520
3383 6269
3383 6606
3383 9130
3383 9155
3384 3669
3384 3976
3384 4080
3384 4887
3385 3683
3385 5363
3385 6286
3385 6414
3385 6485
3385 7016
3385 7026
3385 7239
3386 4153
3386 4379
3386 4983
3386 5330
3386 7085
3386 9492
3387 3795
3387 4681
3388 4263
3388 4429
3388 4696
3388 4763
3388 5843
3388 6198
3388 7901
3388 8328
3388 8877
3388 8971
3388 9444
3389 3773
3389 3795
3389 4409
3389 4710
3389 5432
3389 5491
3389 5754
3389 6154
3389 6308
3389 6573
3389 7305
3389 7571
3389 7900
3389 7941
3390 3434
3390 4500
3390 5012
3390 5173
3390 5971
3390 6001
3390 6288
3390 8029
3390 9720
3391 3516
3391 5878
3391 7946
3391 9321
3391 9439
3391 9663
3392 3586
3392 3960
3392 4344
3392 7403
3392 8414
3393 3460
3393 5553
3393 5975
3393 6087
3393 6957
3393 7114
3393 7649
3393 8623
3393 8809
3393 9934
3394 6343
3394 7422
3394 8111
3394 8598
3394 9639
3395 6094
3395 6943
3396 3427
3396 3720
3396 4798
3396 4912
3396 4999
3396 5397
3396 5926
3396 5963
3396 6830
3396 7419
3396 8308
3396 8347
3396 8834
3397 5677
3397 7215
3398 3527
3398 4061
3398 5447
3398 5492
3398 7379
3398 8403
3398 8412
3398 8942
3398 9922
3399 3931
3399 5764
3399 6918
3399 8493
3399 8803
3399 9948
3400 3454
3400 3528
3400 3550
3400 4292
3400 4904
3400 5190
3400 6766
3400 7336
3400 7748
3400 8056
3400 8559
3400 8602
3400 9277
3401 4138
3401 5720
3401 6081
3401 8002
3401 8110
3401 9071
3401 9411
3402 5883
3402 6194
3402 6404
3402 6556
3402 7227
3402 7527
3402 8139
3403 3990
3403 4370
3403 4449
3403 5723
3403 6341
3403 6756
3403 8534
3403 8860
3404 7525
3404 8624
3404 8805
3404 8951
3405 5360
3405 6125
3405 6315
3405 8482
3405 9325
3406 4185
3406 5143
3406 5655
3406 7192
3406 7416
3406 8749
3407 3858
3407 3865
3407 5800
3407 5972
3407 7082
3407 7124
3407 7520
3407 8974
3407 9921
3408 3424
3408 5626
3409 4048
3409 4180
3409 5179
3409 5750
3409 5931
3409 6863
3409 6889
3409 9342
3410 3644
3410 3930
3410 4812
3410 4830
3410 5407
3410 5513
3410 6836
3410 9405
3411 3789
3411 4712
3411 5154
3411 5657
3411 7578
3411 8575
3411 9169
3412 3917
3412 6113
3412 7207
3412 7415
3412 8002
3413 3611
3413 3624
3413 3928
3413 4003
3413 4190
3413 4447
3413 5038
3413 5534
3413 5737
3413 6212
3413 6274
3413 6714
3413 6751
3413 7590
3413 8008
3413 9301
3413 9779
3414 3812
3414 5593
3414 6850
3414 8247
3414 9287
3414 9503
3415 4095
3415 4536
3415 5480
3415 6534
3415 7844
3415 9585
3416 4912
3416 5958
3416 6253
3416 6362
3416 7564
3416 8905
3416 9327
3416 9468
3416 9616
3417 3550
3417 4412
3417 4519
3417 6343
3417 6715
3417 7167
3417 7473
3417 8250
3417 8725
3417 8846
3418 3572
3418 4521
3418 5663
3418 7364
3418 7605
3418 7683
3418 8030
3418 9647
3419 3620
3419 6129
3419 6179
3419 8681
3419 8977
3419 9473
3420 3681
3420 3691
3420 5805
3420 6400
3420 6920
3420 7682
3420 7948
3420 8300
3420 8510
3420 9473
3421 4288
3421 4736
3421 5163
3421 6705
3421 7227
3422 3578
3422 5371
3422 5573
3422 5611
3422 6844
3422 7217
3422 7846
3422 8223
3422 8380
3422 9839
3423 3789
3423 4134
3423 5736
3423 6163
3423 6789
3423 8734
3423 9536
3424 3524
3424 3719
3424 4089
3424 4305
3424 4656
3424 6521
3424 7957
3424 8342
3424 8962
3424 9973
3425 3883
3425 4560
3425 4867
3425 4904
3425 5874
3425 6531
3425 7663
3425 7840
3425 8293
3425 9249
3426 6486
3426 6764
3427 4420
3427 5612
3427 7510
3427 8071
3427 8825
3428 3786
3428 4733
3428 5585
3428 7385
3428 7733
3428 8985
3429 4349
3429 4519
3429 5459
3429 6108
3429 6584
3429 7811
3429 7829
3429 7905
3429 7930
3429 8482
3429 9045
3429 9057
3429 9236
3429 3501
3430 5865
3430 7552
3430 7566
3430 8315
3430 9237
3430 9878
3431 4031
3431 4050
3431 4353
3431 5618
3431 6997
3431 7545
3431 7614
3431 8330
3431 8488
3431 9549
3432 3834
3432 3871
3432 5598
3432 5867
3432 6035
3432 7714
3432 9380
3433 3828
3433 3989
3433 4403
3433 6031
3433 6071
3433 6404
3433 6953
3433 7597
3434 4218
3434 4938
3434 5524
3434 5954
3434 6700
3434 6903
3434 8416
3434 8472
3434 8576
3434 9260
3435 4332
3435 4788
3435 6208
3435 6584
3435 8986
3436 3871
3436 3922
3436 4422
3436 5269
3436 6477
3436 7538
3436 7987
3436 8101
3436 8826
3436 9435
3436 9729
3436 7056
3437 3457
3437 3459
3437 3676
3437 4454
3437 4647
3437 5021
3437 5439
3437 6149
3437 6368
3437 6742
3437 6906
3437 7078
3437 7507
3437 8514
3438 5533
3438 5745
3438 6136
3438 6155
3438 7207
3438 7516
3438 8773
3438 9196
3439 3872
3439 5709
3439 6527
3439 9079
3440 4078
3440 4176
3440 4435
3440 5080
3440 5965
3440 6863
3440 6880
3440 7219
3440 8370
3440 9429
3441 4715
3441 5369
3441 7777
3441 8767
3441 9811
3442 3985
3442 4231
3442 4326
3442 4674
3442 6619
3442 7094
3442 8104
3442 8162
3443 4978
3443 5029
3443 6517
3444 4567
3444 5114
3444 6174
3444 7006
3444 8073
3444 8125
3444 8152
3445 4117
3445 5286
3445 6379
3445 6456
3445 8545
3445 8580
3445 9094
3446 4047
3446 5087
3446 8014
3446 8016
3447 4102
3447 4268
3447 4787
3447 5693
3447 6580
3447 9244
3448 3859
3448 3957
3448 5399
3448 5901
3448 6297
3448 6565
3448 7307
3448 7925
3448 8095
3449 4120
3449 4490
3449 4774
3449 5412
3449 5717
3449 5818
3449 7767
3449 7799
3449 9293
3450 5543
3451 5360
3451 5458
3451 5769
3451 5947
3451 6198
3451 6936
3451 7037
3451 7225
3452 3483
3452 4745
3452 4911
3452 4992
3452 5425
3452 5559
3452 6542
3452 6738
3452 6800
3452 7239
3452 8409
3453 4276
3453 4401
3453 5083
3453 5248
3453 5466
3453 5510
3453 6062
3453 7280
3453 7746
3453 7755
3453 7857
3453 8307
3453 9772
3453 9842
3454 3910
3454 4345
3454 4664
3454 5057
3454 5398
3454 5568
3454 6513
3454 6549
3454 8904
3455 4406
3455 5994
3455 6601
3455 7951
3455 8252
3455 8578
3455 9315
3456 4155
3456 6997
3456 9611
3457 3729
3457 6340
3457 9416
3458 3742
3458 3797
3458 4152
3458 4909
3458 4961
3458 5873
3458 9269
3458 9442
3458 9450
3458 9978
3459 4066
3459 4610
3459 5019
3459 6012
3459 6165
3459 6602
3459 6918
3460 3534
3460 3711
3460 5270
3460 5882
3460 6332
3460 6644
3460 7134
3460 7159
3460 8722
3462 3683
3462 5659
3462 5728
3462 6159
3462 7334
3462 8008
3462 8332
3462 8942
3463 3541
3463 6154
3463 7466
3463 7853
3463 9042
3463 9215
3464 3568
3464 4960
3464 4978
3464 5319
3464 5687
3464 7032
3465 5451
3465 5632
3465 7694
3465 8749
3465 9047
3465 9788
3465 9806
3466 3652
3466 3677
3466 3961
3466 4505
3466 5866
3466 6162
3466 6174
3466 7206
3466 8846
3466 9966
3467 3885
3467 4548
3468 3967
3468 3995
3468 7484
3468 8167
3469 5471
3469 7247
3469 7930
3469 8424
3469 9785
3470 4130
3470 4723
3470 6346
3470 6520
3470 7577
3470 7852
3470 8949
3470 9977
3471 4181
3471 5485
3471 8058
3471 8698
3472 4014
3472 4150
3472 4496
3472 4881
3472 5458
3472 5791
3472 5824
3472 7531
3472 8297
3472 9311
3472 9377
3473 4570
3473 5072
3473 6316
3473 6812
3473 8500
3474 4010
3474 4270
3474 5558
3474 5627
3474 6353
3474 6464
3474 6909
3474 7742
3474 8318
3474 9201
3474 9713
3475 6781
3476 3566
3476 3767
3476 5838
3476 6650
3476 9059
3477 4541
3477 4628
3477 5277
3477 8342
3478 3686
3478 3989
3478 5552
3478 5833
3478 6530
3478 7162
3478 7925
3478 7931
3478 8123
3478 9149
3479 3620
3479 4302
3479 4464
3479 4542
3479 5311
3479 5421
3479 7082
3480 3898
3480 3966
3480 4102
3480 4533
3480 4823
3480 5347
3480 5634
3480 6377
3480 6544
3480 6681
3480 6966
3480 7093
3480 7572
3480 7619
3480 7978
3480 8545
3480 8616
3480 9043
3481 4219
3481 4966
3481 5336
3481 6146
3481 7212
3481 8719
3481 8957
3481 9347
3482 4731
3482 5262
3482 5366
3482 5995
3482 8690
3483 3622
3483 5301
3483 5630
3483 5888
3483 6025
3483 8534
3483 9468
3483 9661
3483 9990
3484 3845
3484 7293
3484 7985
3485 3942
3485 4254
3485 5209
3485 6747
3485 9630
3486 7226
3486 7745
3487 3751
3487 4078
3487 4151
3487 4245
3487 4729
3487 4746
3487 5011
3487 5146
3487 6268
3487 7344
3487 7538
3487 8489
3487 9486
3487 9872
3488 3520
3488 5846
3488 5991
3488 7348
3488 8633
3488 9087
3488 9960
3489 5081
3489 5231
3489 7098
3489 8197
3489 8606
3490 4714
3490 5226
3490 5674
3490 6270
3490 7985
3490 8454
3491 4905
3491 5473
3491 8139
3491 8179
3491 8320
3491 8446
3491 8921
3491 9705
3492 4968
3492 5939
3492 7138
3492 9031
3493 4854
3493 7492
3493 9266
3493 9447
3494 3619
3494 4149
3494 6183
3494 9173
3494 9998
3495 3852
3495 3929
3495 3994
3495 4301
3495 4390
3495 5106
3495 5778
3495 6586
3495 8540
3495 9248
3496 4375
3496 4739
3496 4929
3496 4936
3497 5412
3497 7158
3497 7683
3497 7875
3498 3578
3498 4523
3498 4685
3498 6648
3498 7179
3498 7486
3498 7877
3498 9963
3499 3501
3499 6883
3499 8834
3499 9865
3500 3873
3500 4707
3500 4976
3500 5517
3500 5759
3500 5938
3500 7733
3501 3506
3501 3980
3501 7284
3501 7657
3501 9931
3502 4123
3502 4325
3502 5088
3502 5778
3502 5808
3502 6730
3502 7109
3502 7304
3502 8324
3502 9264
3502 9491
3503 6807
3503 6838
3503 7068
3503 7194
3503 7618
3503 7732
3503 8937
3503 8971
3503 9804
3503 9910
3504 4600
3504 8463
3504 9893
3505 3984
3505 4767
3505 5081
3505 5318
3505 6963
3505 7211
3505 7466
3505 9253
3505 9987
3506 3844
3506 6738
3506 9735
3507 4119
3507 4570
3507 5333
3507 7251
3507 7949
3507 8183
3507 8449
3507 8492
3507 8759
3507 9888
3508 4368
3508 4459
3508 6710
3508 6761
3508 6884
3508 7075
3508 7443
3508 8300
3508 9078
3508 9828
3509 4809
3509 4819
3509 5069
3509 5378
3509 5910
3509 8333
3509 8567
3509 8869
3510 4555
3510 5753
3510 5958
3510 6231
3510 7028
3511 3664
3511 4004
3511 5261
3511 5804
3512 7019
3513 3799
3513 3887
3513 4603
3513 5770
3513 8224
3513 9347
3513 9996
3514 3528
3514 5954
3514 6129
3514 6475
3514 8394
3514 9055
3515 3633
3515 4699
3515 5181
3515 5509
3515 5669
3515 5746
3515 6002
3515 7465
3515 7776
3515 7851
3515 8702
3515 9851
3516 3733
3516 3942
3516 4037
3516 4589
3516 4956
3516 5957
3516 8849
3516 9711
3517 4297
3517 4865
3517 4980
3517 5353
3517 5842
3517 6223
3517 6945
3517 7709
3517 9796
3518 4744
3518 7967
3518 8545
3518 8813
3518 9252
3518 9305
3519 3639
3519 5136
3519 7088
3520 5013
3520 5499
3520 5694
3520 5782
3520 7053
3520 7190
3521 4264
3521 5329
3521 7008
3521 7236
3521 7253
3521 8149
3521 8582
3521 8592
3521 8964
3522 4110
3522 4143
3522 5881
3522 5925
3522 5987
3522 7890
3522 9007
3522 9372
3522 9907
3523 7117
3523 7250
3523 7649
3523 7825
3523 9417
3523 9430
3524 3678
3524 3826
3524 7914
3525 3670
3525 7651
3525 8305
3525 9381
3526 5939
3526 6115
3526 7032
3526 8442
3526 8472
3526 9800
3527 5869
3527 5886
3527 6213
3527 7181
3527 7960
3527 8948
3527 9000
3528 3867
3528 3879
3528 4295
3528 5310
3528 8427
3529 3552
3529 3580
3529 4249
3529 4265
3529 4334
3529 4769
3529 7206
3529 7435
3529 8396
3529 8918
3530 4459
3530 4528
3530 6146
3530 6656
3530 7117
3530 7574
3530 9195
3530 9608
3531 3983
3531 4635
3531 6017
3532 5397
3532 7725
3532 8178
3532 8448
3532 9286
3533 3617
3533 4427
3533 7115
3533 7260
3533 7779
3533 9798
3534 4137
3534 4985
3534 5897
3534 7439
3534 8543
3535 4235
3535 4419
3535 5227
3536 6487
3536 7134
3536 7311
3536 7736
3536 8079
3536 9592
3537 3779
3537 4759
3537 7206
3537 9359
3538 4407
3538 4469
3538 5190
3538 7241
3538 7946
3538 9637
3539 5198
3539 6339
3540 3662
3540 4085
3540 4752
3540 6338
3540 6820
3540 9105
3541 3811
3541 3968
3541 4890
3541 5598
3541 5624
3541 5800
3541 6328
3541 7788
3542 4229
3542 4298
3542 5465
3542 8250
3542 8622
3543 4435
3543 5379
3543 5738
3543 7587
3543 8352
3543 9361
3544 3987
3544 4339
3544 5193
3544 5828
3544 7514
3544 8379
3545 5318
3545 5797
3545 6260
3545 7324
3545 8909
3545 9306
3546 3614
3546 4427
3546 5095
3546 5711
3546 5965
3546 6452
3546 7197
3546 9489
3547 3855
3547 4964
3547 6270
3547 7724
3547 8198
3548 3624
3548 4494
3548 5833
3548 8958
3549 4050
3549 9942
3550 3872
3550 4226
3550 4516
3550 4630
3550 5175
3550 5245
3550 6535
3550 6571
3550 6625
3550 6834
3550 7959
3550 8286
3550 8638
3550 8740
3550 9289
3550 9356
3550 9660
3550 9886
3551 3874
3551 4491
3551 6444
3552 5018
3552 5070
3552 5914
3552 5946
3552 7786
3552 8759
3552 9289
3553 4557
3553 6373
3553 7440
3553 8060
3553 8114
3553 8256
3553 8473
3553 8749
3553 8767
3554 3600
3554 3929
3554 4032
3554 4777
3554 5758
3554 8693
3554 9188
3555 3735
3555 3789
3555 3808
3555 4872
3555 5492
3555 5534
3555 6152
3555 6254
3555 6362
3555 6744
3555 8135
3555 8537
3555 9585
3556 4409
3556 5056
3556 6068
3556 7689
3556 9293
3556 9765
3557 4246
3557 5695
3557 6935
3558 3821
3558 5628
3558 5973
3558 6237
3558 6472
3558 6920
3558 7417
3558 9367
3559 5472
3559 5548
3559 5774
3559 6523
3559 7759
3559 7853
3559 8531
3559 9722
3560 3954
3560 4687
3560 7583
3560 7723
3560 7839
3560 8142
3560 8610
3560 8718
3560 9932
3561 4023
3561 5339
3561 6983
3561 7360
3562 3748
3562 5339
3562 6283
3562 6404
3562 7690
3562 8098
3562 9119
3562 9367
3563 3699
3563 4350
3563 4720
3563 5219
3563 6565
3563 6714
3563 7030
3563 8036
3563 8346
3563 8637
3563 9288
3564 4560
3564 5258
3564 5906
3564 7039
3564 7982
3564 8434
3565 7317
3565 8341
3566 3830
3566 4077
3566 4717
3566 5119
3566 6888
3566 7694
3566 7798
3566 8665
3567 3604
3567 3632
3567 5559
3567 6576
3567 7017
3568 3758
3568 4560
3568 5356
3568 7129
3568 8216
3568 8564
3568 9655
3569 4293
3569 4959
3569 5484
3569 5620
3569 6599
3569 6617
3569 7351
3569 8553
3569 8903
3569 9000
3570 3778
3570 4180
3570 4420
3570 4621
3570 5136
3570 5771
3570 5790
3570 6481
3570 7382
3570 7724
3570 8476
3570 8940
3570 9688
3571 3584
3571 4737
3571 5174
3571 6761
3571 9319
3572 3868
3572 3944
3572 6635
3572 6770
3572 6800
3572 7306
3572 7851
3572 8172
3572 8617
3572 8655
3572 9365
3573 4021
3573 4289
3573 5902
3573 8302
3574 4324
3574 4744
3574 6104
3574 9915
3574 9938
3575 4402
3575 4884
3575 4948
3575 5841
3575 6965
3575 9782
3576 3702
3576 6568
3576 7675
3576 7759
3576 9026
3576 9088
3576 9310
3576 9525
3577 3887
3577 4098
3577 4223
3577 4405
3577 4759
3577 4922
3577 5223
3577 6803
3578 3868
3578 5685
3578 5835
3578 6013
3578 6452
3578 7418
3578 7836
3579 6800
3580 3591
3580 5541
3580 7727
3580 7749
3581 3911
3581 4317
3581 4353
3581 4953
3581 6564
3581 6949
3581 9692
3582 3876
3582 4504
3582 6328
3582 6743
3582 7279
3582 8433
3582 9266
3582 9387
3583 4537
3583 5450
3583 6206
3583 7108
3583 7943
3583 8201
3584 5655
3584 9460
3585 3586
3585 5883
3585 6174
3585 6769
3585 7009
3585 7147
3585 8839
3585 8958
3585 9011
3586 3828
3586 4509
3586 5724
3586 6080
3586 6872
3586 6996
3586 7004
3586 7235
3586 7355
3586 8371
3586 9863
3587 4016
3587 5374
3587 5736
3587 5778
3587 8514
3587 8576
3588 3790
3588 5092
3588 5377
3588 5794
3588 9118
3588 9788
3588 9831
3589 4408
3589 4457
3589 4643
3589 4900
3589 8651
3590 4044
3590 4539
3590 5795
3590 5867
3590 7878
3590 8254
3590 8322
3590 9046
3591 4869
3591 5698
3591 5717
3591 8942
3591 9277
3592 3854
3592 4755
3592 6679
3592 6869
3592 8030
3592 8739
3592 9624
3593 3908
3593 4310
3593 4518
3593 4532
3593 7955
3593 8503
3593 8522
3594 5656
3594 7055
3594 7418
3594 8633
3595 4322
3595 4553
3595 5558
3595 8411
3595 9473
3595 9616
3595 9886
3596 4202
3596 5645
3596 5983
3596 6704
3596 7658
3597 3826
3597 3984
3597 4164
3597 4700
3597 4824
3597 5251
3597 5963
3597 6171
3597 6815
3597 6989
3597 8442
3597 8761
3598 4038
3598 5049
3598 6008
3598 7748
3598 7887
3599 4098
3599 4548
3599 4839
3599 5286
3599 5334
3599 6754
3599 6827
3599 7193
3599 7582
3599 7612
3599 7820
3600 7810
3601 3854
3601 4442
3601 4968
3601 6225
3601 6570
3601 6940
3601 7097
3601 8632
3601 8657
3601 9439
3602 3776
3602 4232
3602 5468
3602 7238
3602 7910
3602 8461
3602 8519
3602 8553
3603 4051
3603 5389
3603 6109
3603 6292
3603 6978
3603 6995
3603 7844
3603 8743
3604 4553
3604 5684
3604 8688
3604 8851
3604 9072
3604 9955
3605 6092
3605 9872
3606 4282
3606 5656
3606 6081
3606 6561
3606 7589
3606 8744
3606 9530
3607 9231
3608 4008
3608 4700
3608 4951
3608 6196
3608 7494
3608 8173
3608 8923
3608 9465
3609 3965
3609 4304
3609 4529
3609 5851
3609 6937
3609 9060
3609 9583
3610 4972
3610 5418
3610 6931
3610 7097
3610 8196
3611 5238
3611 5327
3611 5743
3611 8459
3611 8783
3611 9647
3612 3637
3612 3892
3612 4210
3612 4706
3612 5103
3612 5645
3612 5941
3612 6441
3612 7058
3612 8046
3612 8601
3612 9550
3613 4216
3613 5264
3613 5410
3613 5457
3613 6202
3613 6521
3613 7730
3613 7841
3614 4248
3614 9113
3614 9178
3615 7286
3616 9024
3617 4987
3617 6154
3617 6915
3617 7606
3617 7888
3617 8130
3617 8566
3618 3622
3618 4963
3618 5004
3618 5090
3618 7903
3619 3951
3619 4142
3619 4406
3619 4615
3619 6661
3619 6797
3619 7036
3619 7171
3619 9158
3619 9863
3620 3871
3620 4726
3620 5378
3620 6587
3620 6840
3620 7097
3620 7954
3620 8560
3620 8879
3621 5002
3622 3817
3622 4019
3622 5349
3622 8687
3622 9668
3623 5573
3623 5582
3623 5767
3623 6333
3623 7549
3623 7819
3623 7980
3623 8431
3624 4077
3624 4308
3624 4607
3624 5208
3624 5284
3624 6570
3624 6592
3624 7898
3625 5531
3625 5903
3625 6304
3625 7729
3625 8281
3625 8617
3626 4177
3626 4335
3626 6227
3626 6324
3626 7042
3626 7247
3626 7777
3626 8244
3626 8605
3627 3925
3627 4993
3627 5024
3627 6211
3627 7191
3627 8642
3628 3707
3628 3779
3628 3797
3628 5076
3628 5256
3628 5806
3628 6833
3628 7432
3628 8214
3629 3772
3629 5082
3629 5637
3629 6151
3629 8716
3630 4093
3630 4311
3630 4535
3630 7366
3630 9253
3630 9487
3631 4729
3631 5592
3631 5926
3631 6685
3631 7193
3632 5008
3632 6034
3632 9227
3633 5125
3633 6134
3633 6970
3633 9519
3633 9788
3634 4009
3634 4572
3634 5003
3634 6546
3634 6880
3634 7225
3634 7688
3634 8579
3634 8935
3634 9498
3634 9523
3635 4818
3635 5233
3635 5313
3635 5575
3635 6987
3635 7006
3635 7244
3635 8157
3635 9788
3636 3729
3636 3822
3636 5842
3636 5880
3636 6395
3636 7402
3637 4066
3637 6220
3637 6276
3637 6942
3637 9724
3638 3906
3638 4332
3638 4967
3638 5025
3638 5618
3638 6683
3638 6820
3639 5115
3639 5172
3639 6574
3639 7133
3640 3679
3640 4067
3640 4449
3640 4850
3640 5047
3640 6364
3640 7397
3640 9191
3640 9409
3641 4596
3641 7867
3641 8734
3642 3801
3642 4332
3642 7968
3642 9500
3643 4714
3643 5335
3643 5618
3643 7981
3643 8035
3643 8156
3643 8335
3643 8816
3643 8878
3643 9074
3643 9954
3644 5401
3644 6466
3644 9094
3644 9355
3645 3955
3645 5366
3645 7819
3645 8430
3645 9105
3646 3963
3646 7166
3646 7696
3647 4253
3647 5601
3647 5623
3647 5900
3647 5918
3647 6787
3647 7114
3647 7643
3647 9687
3648 5707
3648 5944
3648 6122
3648 7017
3648 9181
3648 9477
3649 4097
3649 5042
3649 5180
3649 5509
3649 5698
3649 7277
3649 7811
3650 4189
3650 4302
3650 4337
3650 4865
3650 7117
3650 8081
3650 8168
3650 8421
3650 8480
3650 9482
3651 4031
3651 4170
3651 5604
3651 6521
3651 8676
3651 9183
3652 5899
3652 7988
3653 4175
3653 5720
3653 6043
3653 6599
3653 6853
3654 3834
3654 4398
3654 4558
3654 5568
3654 5676
3654 5686
3654 7150
3654 8572
3655 3998
3655 5243
3655 5462
3655 7231
3655 7723
3655 8729
3656 5873
3656 6140
3656 9087
3657 4577
3657 4788
3657 5716
3657 5806
3657 5830
3657 7394
3657 9453
3657 9567
3657 9763
3658 4081
3658 4675
3658 5004
3658 5009
3658 6152
3658 6308
3658 6792
3658 6969
3658 8741
3658 9408
3659 3700
3659 5211
3659 7194
3659 7502
3659 8382
3659 8402
3659 9005
3660 4791
3660 5397
3660 8724
3660 8773
3661 3687
3661 4571
3661 6699
3661 7142
3661 7917
3662 4091
3662 5688
3662 5792
3662 6217
3662 6537
3662 7436
3662 8484
3662 9435
3662 9436
3662 9876
3662 9925
3663 4044
3663 6040
3663 9676
3664 4587
3664 5048
3664 6245
3664 7090
3664 9142
3664 9489
3665 3848
3665 4720
3665 4899
3665 6007
3665 6975
3665 8630
3665 8988
3666 3977
3666 4192
3666 4956
3666 6199
3666 9207
3667 3769
3667 5603
3667 6509
3667 7076
3667 8401
3667 8512
3668 4171
3668 4447
3668 4833
3668 5668
3668 8340
3668 9305
3669 4148
3669 5668
3669 6982
3669 9170
3670 3759
3670 4158
3670 4308
3670 5761
3670 5912
3670 7134
3670 8296
3670 9668
3670 9713
3671 5377
3671 6034
3671 7536
3671 9835
3672 4343
3672 4801
3672 4806
3672 5192
3672 9081
3672 9143
3672 9164
3673 5429
3673 5564
3674 3731
3674 3819
3674 4006
3674 5557
3674 7632
3674 7881
3674 8177
3674 8191
3674 8877
3674 9882
3675 4643
3675 5320
3675 6749
3675 8883
3676 3994
3676 4672
3676 6445
3676 6691
3676 7018
3676 7023
3676 7058
3676 8535
3677 3820
3677 4658
3677 6401
3677 7049
3677 7390
3677 7411
3677 7581
3677 9244
3678 4433
3678 5734
3678 5746
3678 7437
3678 8155
3678 9187
3679 5608
3679 7492
3679 8368
3679 9366
3680 4614
3680 4851
3680 4992
3680 5224
3680 6666
3680 7538
3681 3768
3681 3844
3681 4102
3681 4619
3681 4748
3681 4821
3681 4831
3681 4914
3681 4937
3681 7008
3681 7023
3681 7114
3681 7857
3681 9571
3681 9685
3682 4907
3682 5875
3682 6793
3682 6978
3682 7347
3683 4365
3683 5806
3683 5996
3683 6259
3683 7100
3683 7154
3684 5742
3684 6561
3684 7211
3685 5666
3685 5800
3685 7955
3686 3878
3686 4891
3686 8206
3686 9191
3687 4785
3687 7677
3687 7913
3688 4856
3688 5683
3688 5909
3688 6372
3688 6417
3688 7132
3688 7859
3688 9630
3688 9878
3689 6511
3689 6747
3689 8006
3690 4195
3690 6259
3690 9693
3691 4827
3691 5296
3691 5349
3691 5927
3691 6902
3691 8512
3692 3749
3692 3945
3692 4142
3692 4698
3692 6098
3692 6619
3692 6926
3692 8784
3693 4854
3693 5933
3693 9200
3693 9316
3693 9675
3693 9743
3694 4819
3694 5394
3694 6101
3694 8474
3694 8969
3695 3708
3695 4090
3695 4687
3695 4696
3695 5028
3695 5924
3695 5993
3695 7666
3695 7714
3695 8046
3695 8840
3696 4030
3696 4260
3696 6687
3696 6824
3696 8154
3697 4692
3697 4917
3697 6111
3697 6629
3697 7531
3697 8761
3697 9329
3697 9823
3698 3998
3698 5260
3698 5693
3698 6737
3699 4020
3699 5400
3699 8140
3699 8181
3699 8400
3699 8943
3699 9068
3699 9786
3700 3896
3700 3915
3700 4241
3700 4439
3700 5493
3700 5639
3700 5757
3700 5834
3700 6819
3700 7182
3700 7376
3700 7870
3700 7913
3700 8856
3700 9197
3701 7869
3701 8792
3702 5304
3702 5369
3702 5589
3702 6116
3702 6371
3702 7121
3702 7427
3702 7439
3702 7711
3702 7982
3703 3806
3703 4165
3703 4416
3703 4513
3703 6502
3703 6672
3703 8393
3703 9293
3704 4618
3704 5420
3704 5433
3704 5722
3704 7198
3704 7790
3704 9190
3705 4041
3705 4501
3705 7229
3705 7513
3705 7650
3705 8244
3705 8819
3705 9076
3705 9641
3706 5042
3706 6815
3706 7082
3706 7825
3706 8892
3706 8966
3707 3814
3707 4620
3707 5249
3707 5367
3707 5687
3707 8005
3707 9894
3708 5628
3708 5967
3708 7956
3709 6233
3709 6925
3709 8436
3710 4553
3710 4719
3710 5145
3710 5846
3710 8120
3710 9027
3710 9104
3711 5738
3711 9137
3712 4473
3712 4483
3713 7226
3713 7438
3713 8725
3713 9115
3713 9130
3713 9203
3714 5241
3714 5970
3714 7579
3714 7939
3714 8546
3715 4823
3715 6991
3715 7650
3715 8064
3715 9482
3716 5695
3716 7478
3716 8053
3716 8685
3716 8710
3717 4128
3717 5549
3717 6217
3717 6264
3717 6925
3717 6931
3717 7967
3717 9238
3718 4107
3718 9177
3719 4042
3719 7115
3719 8624
3719 8840
3720 6910
3720 8088
3720 8136
3720 8500
3720 8692
3721 4308
3721 5011
3721 5662
3721 6886
3721 7293
3721 8105
3721 8598
3721 9714
3722 6305
3722 6726
3723 4452
3723 6423
3723 7487
3723 9257
3723 9730
3724 4062
3724 5059
3724 6072
3724 6265
3724 6556
3724 6643
3725 6602
3725 7933
3725 9833
3726 7329
3726 9049
3727 4987
3727 5546
3727 6031
3727 7147
3727 7851
3728 5866
3728 7400
3728 8029
3728 8928
3729 4106
3729 5242
3729 5313
3729 6614
3729 7611
3729 8597
3729 8691
3729 9230
3730 3754
3730 4507
3730 5490
3730 7460
3731 3824
3731 4326
3731 4537
3731 4957
3731 5433
3731 5501
3731 5678
3731 7442
3731 8589
3732 3794
3732 4820
3732 5386
3732 7824
3732 8047
3732 8891
3733 3904
3733 4024
3733 5890
3733 7491
3733 8150
3733 8372
3734 3895
3734 4398
3734 5197
3734 6361
3734 6870
3734 7452
3734 8703
3734 9484
3735 3791
3735 3994
3735 4724
3735 4884
3735 7654
3735 7798
3735 8280
3735 8648
3735 8924
3735 9512
3736 4659
3737 4586
3737 6688
3737 7355
3737 9122
3738 4244
3738 5530
3738 6251
3738 6520
3738 6597
3738 7063
3738 9945
3739 8865
3740 4396
3740 5803
3740 5851
3740 6989
3740 7420
3740 7920
3740 9093
3740 9612
3741 4481
3741 4995
3741 5269
3741 6166
3741 7579
3741 8433
3741 8674
3741 8712
3741 9520
3742 5412
3742 6049
3743 5124
3743 6365
3744 4384
3744 5495
3744 5929
3745 3895
3745 5361
3745 5503
3745 5566
3745 6066
3745 6220
3745 6253
3745 6759
3745 7146
3745 7521
3745 8195
3745 8246
3745 8789
3746 4318
3746 4558
3746 4917
3746 5017
3746 6262
3746 7150
3746 7222
3746 7308
3746 7634
3746 7937
3746 8754
3746 8771
3747 4620
3747 4991
3747 5551
3747 6497
3747 7044
3747 7327
3747 8937
3747 9926
3747 9993
3748 5146
3748 5162
3748 6934
3748 7120
3748 7676
3749 3838
3749 3968
3749 4013
3749 4179
3749 4668
3749 5410
3749 5766
3749 6599
3749 6613
3750 4749
3750 6212
3750 6383
3750 6885
3750 7447
3750 7866
3751 4234
3751 4763
3751 4916
3751 5204
3751 5641
3751 7502
3751 7738
3751 9561
3751 9752
3751 9822
3752 3965
3752 4664
3752 4678
3752 4945
3752 5907
3752 8058
3752 9107
3753 3754
3753 4330
3753 6703
3753 7335
3753 8240
3754 3986
3754 4893
3754 5582
3754 5735
3754 6043
3754 6256
3754 6295
3754 7316
3754 7913
3754 8123
3754 8621
3754 9126
3755 6985
3756 3904
3756 5349
3756 5388
3757 4457
3757 9126
3758 7032
3758 8064
3758 8731
3759 3989
3759 4466
3759 4976
3759 5226
3759 5289
3759 5449
3759 5677
3759 5935
3759 6023
3759 6281
3759 6505
3759 6772
3760 3795
3760 4104
3760 5144
3760 5204
3760 5308
3760 5429
3760 7816
3760 8729
3760 9385
3760 9678
3761 4713
3762 4009
3762 4265
3762 5105
3762 5520
3762 6672
3762 7354
3763 3997
3763 4711
3763 7411
3764 6359
3764 6455
3764 6767
3764 8405
3764 8812
3765 4896
3765 4941
3765 5186
3765 6859
3765 8212
3765 8364
3765 8630
3766 4383
3766 4447
3766 5970
3767 4355
3767 4545
3767 5048
3767 5118
3767 5379
3767 6430
3767 6436
3767 6566
3767 7330
3767 9382
3768 4222
3768 4379
3768 5010
3768 5378
3768 6106
3768 6335
3768 6359
3768 6825
3768 6852
3768 7568
3769 6761
3769 8073
3769 9078
3770 4094
3770 4951
3770 5739
3770 7014
3770 7413
3770 7770
3770 8557
3770 9366
3771 4415
3771 5092
3771 5371
3771 7904
3771 8188
3771 8460
3771 9875
3772 5454
3772 5488
3772 5810
3772 6004
3772 6544
3772 8288
3772 9265
3772 9548
3773 6247
3773 9084
3774 3854
3774 4162
3774 4200
3774 5222
3774 5283
3774 5590
3774 5694
3774 6783
3774 6856
3774 7805
3774 7837
3774 8799
3774 9566
3775 8919
3776 3978
3776 4603
3776 5575
3776 6463
3776 8339
3777 4768
3777 4778
3777 4939
3777 5089
3777 7722
3778 3933
3778 4410
3778 6083
3778 7389
3778 9312
3779 4156
3779 4252
3779 4715
3779 5222
3779 5489
3779 9158
3780 3791
3780 5034
3780 5336
3780 6816
3780 7174
3780 7528
3781 5170
3781 5193
3781 5462
3781 5485
3781 6595
3781 7374
3781 8091
3781 8522
3781 8708
3781 9023
3781 9427
3782 4837
3782 5055
3782 5865
3782 6209
3782 7991
3782 9116
3782 9421
3783 4579
3783 6237
3783 6772
3783 9180
3784 5616
3784 5682
3784 6607
3785 3927
3785 4426
3785 5530
3785 6138
3785 7149
3786 5926
3786 6245
3786 6403
3786 6532
3786 6879
3786 7300
3786 7751
3786 9223
3786 9931
3787 3946
3787 4932
3788 3812
3788 3960
3788 4264
3788 4303
3788 4759
3788 4885
3788 5066
3788 5137
3788 6184
3788 6294
3788 6368
3788 7773
3788 9134
3789 4291
3789 4442
3789 5167
3789 5306
3789 7531
3789 9039
3790 3822
3790 3851
3790 4022
3790 4166
3790 5230
3790 7462
3790 7833
3791 6647
3791 6849
3791 6856
3791 6857
3791 8358
3791 8711
3792 3831
3792 4721
3792 4942
3792 5256
3792 6208
3792 6523
3792 7068
3792 7622
3792 7723
3792 8223
3792 9327
3792 9574
3793 4251
3793 6076
3794 9497
3795 4226
3795 6600
3795 7765
3795 8787
3796 4701
3796 4718
3796 5280
3796 8102
3796 9125
3796 9185
3797 3817
3797 4236
3797 4251
3797 5382
3797 6330
3797 6634
3797 6647
3797 7068
3797 7205
3797 8368
3797 9343
3797 9579
3797 9752
3798 4277
3798 4742
3798 6873
3798 7094
3798 8772
3798 8833
3798 8945
3799 4090
3799 5221
3799 6136
3799 6707
3799 8715
3800 3911
3800 4025
3800 5909
3800 7524
3801 4306
3801 5084
3801 5354
3801 7152
3801 8536
3802 4337
3802 4877
3802 5889
3802 6269
3802 7718
3802 9699
3802 9976
3803 3883
3803 4640
3803 7264
3803 7504
3803 8587
3803 9179
3804 4217
3804 4257
3804 4418
3804 5474
3804 6237
3804 6672
3804 6689
3804 6824
3804 7135
3804 7212
3804 8567
3804 9268
3804 9779
3805 4266
3805 4697
3805 5159
3805 6265
3805 6923
3805 7194
3805 7997
3805 8287
3805 9451
3805 9686
3805 9803
3806 4523
3806 4703
3806 5231
3806 6036
3806 6224
3806 7932
3806 8583
3806 9736
3807 5254
3807 7131
3807 8723
3807 9616
3808 5261
3808 5402
3808 5669
3808 5778
3808 5862
3808 5902
3808 6664
3809 4751
3809 5074
3809 5806
3809 6492
3809 7375
3809 8152
3809 8341
3809 8388
3809 8913
3809 9693
3810 3950
3810 4499
3810 4527
3810 5111
3810 7175
3810 7351
3811 4479
3811 4942
3811 5625
3811 6635
3811 7570
3812 4002
3812 7001
3812 7643
3813 4206
3813 4693
3813 5870
3813 6363
3813 6489
3813 6760
3813 6806
3813 7497
3813 8152
3813 9382
3814 4173
3814 4368
3814 4652
3814 4812
3814 6234
3814 6377
3814 7061
3814 7288
3814 7349
3814 7772
3814 9071
3814 9110
3814 9286
3814 9821
3814 9917
3815 4948
3815 5098
3815 5190
3815 6308
3815 6936
3815 7179
3815 8017
3815 8190
3815 9460
3815 9815
3816 4799
3816 7836
3816 8105
3816 8217
3816 9925
3817 4085
3817 4994
3817 5808
3817 6394
3817 6818
3817 7435
3817 9512
3817 9658
3817 9999
3818 7306
3818 7825
3818 7986
3818 8516
3819 4319
3819 4593
3819 6814
3819 6895
3819 7011
3819 8500
3819 9088
3819 9254
3819 9688
3820 4321
3820 5948
3820 6552
3820 8151
3820 9098
3820 9208
3820 9888
3821 3991
3821 6513
3821 8519
3822 6619
3822 8814
3822 8995
3823 5079
3823 5250
3823 6707
3823 6848
3823 8047
3823 8421
3823 9164
3823 9511
3824 4332
3824 4685
3824 5104
3824 5569
3824 6167
3824 6615
3824 7535
3825 4658
3825 5553
3825 6327
3825 7506
3825 8249
3825 8925
3825 9195
3826 4611
3826 4645
3826 5844
3826 6086
3826 7990
3826 7998
3827 3959
3827 4855
3827 5152
3827 6035
3827 6578
3827 6796
3827 7531
3827 7600
3827 8918
3827 9390
3827 9827
3828 3888
3828 4037
3828 4311
3828 4676
3828 4921
3828 5137
3828 5465
3828 6280
3828 8207
3828 8464
3828 9251
3829 4018
3829 4377
3829 4692
3829 4864
3829 5398
3829 5692
3829 7900
3829 9267
3829 9452
3829 9567
3829 9791
3830 3904
3830 5164
3830 5646
3830 5974
3830 6195
3830 6299
3830 7070
3830 7764
3830 7769
3830 8448
3830 9430
3830 9588
3831 4460
3831 4640
3831 5737
3831 7466
3831 9551
3832 4189
3832 5544
3832 9224
3832 9351
3833 6556
3833 7368
3833 7761
3833 8411
3833 8639
3834 3994
3834 5441
3834 6882
3834 8521
3834 8706
3834 9778
3835 3885
3835 5912
3835 7917
3836 5215
3836 5349
3836 8417
3836 9839
3837 3982
3837 4105
3837 4786
3837 5002
3837 5739
3837 6047
3837 7305
3837 7752
3838 4473
3838 4756
3838 7189
3839 4403
3839 5041
3839 6113
3839 7810
3840 4267
3840 4382
3840 4790
3840 5094
3840 6708
3840 6739
3840 7839
3840 8928
3840 9084
3841 6751
3842 4097
3842 4618
3842 6603
3842 8460
3842 9293
3843 5163
3843 5950
3843 6139
3843 7516
3843 9805
3844 6392
3844 6503
3844 7183
3844 8219
3845 4252
3845 4990
3845 6401
3845 6435
3845 7304
3845 7845
3845 9909
3846 3943
3846 4783
3846 5404
3846 5807
3846 7506
3846 7859
3846 7897
3847 4524
3847 4799
3847 9504
3848 4913
3848 8522
3849 4371
3849 6563
3849 6970
3850 6014
3850 8744
3850 9013
3851 4087
3851 4110
3851 4269
3851 4921
3851 5313
3851 5450
3851 5840
3852 4926
3852 7232
3853 4781
3853 5587
3853 6701
3853 7370
3853 8579
3854 4583
3854 4605
3854 4855
3854 7247
3854 9002
3854 9157
3854 9665
3855 4163
3855 4819
3855 6616
3855 7199
3855 7788
3855 8229
3855 9376
3855 9555
3856 4426
3856 4832
3856 6270
3856 6387
3856 6709
3857 4689
3857 5123
3857 9631
3858 4374
3858 6569
3858 6931
3858 7213
3859 4017
3859 4179
3859 4653
3859 6740
3859 8595
3859 8745
3860 4262
3860 5097
3860 7224
3860 8444
3860 8674
3861 4410
3861 5698
3861 6022
3861 6137
3861 6349
3861 7912
3861 8813
3862 4502
3862 4907
3862 5542
3862 8599
3862 9331
3863 4492
3863 4566
3863 5565
3863 5591
3863 5706
3863 5735
3864 4815
3864 6177
3864 6562
3864 8801
3865 4429
3865 5229
3865 7544
3865 7553
3865 7770
3866 4809
3866 5801
3866 6634
3866 6928
3866 7894
3867 4241
3867 6752
3867 8277
3867 8926
3868 5718
3868 6224
3868 6284
3868 6576
3868 6662
3868 9263
3868 9492
3869 4616
3869 4704
3869 5448
3869 6474
3869 6741
3869 9753
3869 9775
3870 4442
3870 4924
3870 5699
3870 5830
3870 6949
3870 7094
3870 7811
3870 8921
3871 4256
3871 5760
3871 5873
3871 7039
3871 7641
3871 7697
3872 5515
3872 9279
3873 4238
3873 4585
3873 5185
3873 6416
3873 9918
3874 4909
3874 7528
3874 7920
3874 9232
3875 4355
3875 4462
3875 5713
3875 6009
3875 8613
3876 4130
3876 4297
3876 5036
3876 7173
3876 7339
3876 9325
3876 9462
3877 6690
3877 7486
3878 4505
3878 4590
3878 4706
3878 4871
3878 4930
3878 5003
3878 5470
3878 5908
3878 5996
3878 6441
3878 7392
3878 8792
3878 9625
3879 7402
3880 4042
3880 5294
3880 5895
3880 7416
3880 8122
3880 8572
3880 8761
3881 4079
3881 4789
3881 5237
3881 6002
3881 6084
3881 8121
3882 5318
3882 5437
3882 5826
3882 6444
3882 8295
3883 5636
3883 7480
3883 8351
3883 8802
3883 9202
3884 4432
3884 5233
3884 5566
3884 6332
3884 9786
3885 7132
3885 8774
3885 9671
3886 4263
3886 4384
3886 5182
3886 6727
3886 7783
3886 9221
3887 4013
3887 5032
3887 5587
3887 5846
3887 6006
3887 6553
3887 7588
3887 7658
3887 7795
3887 7803
3887 8283
3887 9426
3887 9787
3888 4362
3888 4787
3888 5314
3888 5785
3888 6161
3888 6453
3888 6527
3888 6974
3888 7226
3888 7591
3888 8116
3888 9489
3888 9696
3889 7344
3890 5432
3890 5776
3890 6947
3890 7247
3891 9697
3892 3916
3892 3985
3892 5088
3892 5173
3892 5633
3892 5654
3892 5942
3892 7902
3892 8962
3893 4283
3893 4301
3893 4615
3893 4984
3893 5551
3893 7740
3894 4868
3894 8340
3895 4728
3895 6302
3895 6425
3895 7074
3895 7647
3895 8907
3896 4602
3896 7233
3896 8149
3896 9086
3897 6910
3897 9743
3898 6941
3898 7457
3899 3978
3899 4301
3899 4636
3899 5040
3899 5286
3899 5610
3899 5677
3899 6622
3899 7859
3899 8170
3899 8768
3899 9564
3899 9728
3900 4376
3900 4528
3900 5217
3900 5467
3900 5690
3900 8604
3901 3921
3901 3969
3901 3991
3901 5598
3901 7006
3901 7209
3901 7675
3901 8023
3901 9011
3901 9134
3901 9637
3902 6025
3902 9291
3903 4043
3903 5505
3903 7093
3903 7290
3903 7626
3903 8626
3903 8653
3903 9616
3904 5796
3904 7401
3904 9208
3904 9645
3904 9844
3905 4992
3905 5489
3905 5613
3906 4243
3906 4731
3906 6010
3906 6540
3906 8240
3906 9073
3906 9441
3906 9490
3907 5114
3907 5710
3907 7387
3908 4014
3908 4449
3908 4591
3908 5049
3908 5559
3908 7423
3908 8045
3908 8862
3908 9946
3909 6085
3909 6608
3909 7757
3909 8981
3909 9369
3910 4974
3910 6091
3910 6249
3910 6905
3910 8776
3911 4209
3911 4938
3911 9428
3911 9496
3911 9515
3911 9899
3912 6106
3912 8108
3912 8147
3912 8960
3913 4159
3913 4278
3913 4947
3913 5220
3913 6978
3913 8994
3913 9032
3913 9856
3914 5560
3914 5922
3914 6240
3914 6241
3914 6538
3914 9508
3915 5307
3915 5787
3915 6260
3915 6497
3915 6603
3915 6657
3916 4163
3916 4786
3916 4920
3916 6940
3916 8501
3917 8696
3918 5429
3918 5484
3918 9271
3919 3997
3919 4044
3919 4829
3919 5725
3919 5743
3919 6556
3919 9612
3920 4050
3920 4856
3920 5202
3920 5579
3920 5700
3920 7579
3920 7610
3920 7787
3920 7972
3920 8245
3921 5068
3921 6396
3921 6457
3921 6987
3921 7216
3921 7860
3921 8191
3921 8789
3922 6866
3922 7422
3922 8513
3922 9941
3923 4177
3923 6345
3923 7592
3924 7607
3925 4073
3925 4382
3925 4642
3925 5793
3925 6921
3925 7479
3925 9271
3926 4420
3926 6214
3926 6969
3926 7483
3926 8565
3927 4543
3927 5596
3927 7117
3927 7544
3927 7832
3927 8016
3927 9520
3928 4760
3928 6555
3928 8259
3928 8688
3929 3972
3929 4145
3929 5107
3929 5461
3929 5911
3929 6782
3929 8554
3930 4134
3930 4255
3930 6555
3930 7779
3930 8294
3930 8619
3930 8625
3930 9811
3931 4002
3931 5158
3931 5506
3931 5569
3931 8212
3931 8975
3931 9242
3931 9538
3931 9669
3932 4206
3932 5174
3932 6667
3932 6986
3933 4087
3933 8242
3933 9243
3934 4795
3934 8828
3934 9472
3935 8820
3936 4829
3936 7356
3936 9945
3936 9962
3937 7127
3937 7508
3937 7989
3937 8731
3937 8890
3938 4006
3938 4484
3938 4518
3938 5352
3938 5419
3938 5639
3938 7626
3938 7859
3938 8202
3938 8705
3938 8855
3938 9453
3938 9926
3939 4077
3939 4601
3939 5047
3939 7734
3939 8083
3939 8185
3939 8328
3939 8954
3939 9733
3940 4077
3940 4417
3940 5932
3940 6417
3940 7430
3940 8616
3940 8721
3941 4332
3941 7558
3942 4806
3942 5246
3942 7091
3942 7319
3942 7971
3942 8929
3942 9259
3943 4472
3943 7020
3943 8153
3943 8253
3944 4145
3944 5290
3944 6691
3945 4047
3945 4116
3945 4483
3945 6179
3946 4353
3947 4120
3947 4603
3947 5713
3947 6629
3947 7020
3947 7188
3948 4705
3949 4718
3949 6346
3949 6989
3949 7477
3949 8643
3950 4160
3950 4950
3951 4867
3951 5731
3951 5920
3951 9093
3951 9213
3951 9328
3951 9961
3952 4468
3952 4491
3952 5589
3952 5658
3952 5776
3952 7234
3952 7470
3952 7577
3952 7700
3952 7927
3952 8010
3952 8113
3952 8335
3953 5675
3953 6940
3953 7553
3953 7795
3953 8041
3953 8703
3955 4081
3955 4305
3955 4430
3955 5104
3955 6236
3955 6581
3955 6745
3955 8046
3955 8517
3956 7255
3956 8106
3956 9398
3957 4807
3957 5796
3957 6337
3957 7286
3957 8032
3957 8284
3957 8833
3957 9218
3957 9534
3958 3988
3958 5737
3958 5800
3958 7162
3958 8143
3959 5152
3959 5870
3959 6155
3959 7161
3959 9730
3960 4572
3960 6144
3960 6660
3960 7282
3960 8466
3960 8898
3961 4483
3961 5141
3961 5605
3961 6040
3961 6416
3961 6473
3961 6898
3961 8718
3961 9181
3962 4205
3962 4810
3962 5247
3962 6062
3962 7502
3962 7859
3962 8791
3963 5452
3963 8094
3963 8451
3963 8664
3963 8845
3963 9054
3963 9561
3964 4509
3964 6357
3964 7409
3964 7670
3964 8613
3964 8923
3965 4687
3965 5960
3965 6012
3965 6327
3965 8414
3965 9339
3966 3997
3966 5105
3966 7055
3966 8920
3966 9652
3967 5487
3968 4520
3968 5871
3968 7136
3968 7474
3968 7837
3968 8564
3968 8952
3969 4071
3969 4933
3969 5572
3969 6460
3969 8411
3969 8419
3969 9568
3970 4437
3970 4530
3970 4714
3970 4928
3970 4947
3970 5737
3970 6047
3970 6442
3970 8216
3970 9009
3970 9561
3970 9837
3971 4058
3971 4384
3971 4598
3971 5197
3971 5376
3971 7453
3972 5451
3972 7442
3972 8563
3972 9044
3972 9341
3972 9898
3973 4046
3973 5507
3973 5733
3973 6731
3973 7404
3973 9057
3973 9992
3974 4111
3974 4407
3974 7450
3974 7684
3974 8400
3974 9157
3974 9946
3975 4230
3975 4942
3975 4950
3975 5077
3975 6035
3975 6774
3975 7244
3975 7795
3975 8496
3975 8997
3975 9638
3975 9937
3976 4037
3976 4379
3976 4605
3976 6225
3976 6896
3976 7272
3976 7710
3976 8510
3976 8619
3977 4315
3977 5488
3977 6448
3977 7880
3977 9273
3977 9457
3978 4103
3978 5147
3978 8277
3978 8382
3978 9669
3979 4428
3979 4516
3979 6219
3979 6526
3979 7065
3979 7109
3979 8500
3979 8769
3980 5193
3980 8580
3980 8910
3980 9523
3981 5007
3981 8211
3982 4011
3982 4463
3982 5730
3982 6161
3982 6869
3982 6924
3982 7135
3982 7544
3982 7928
3983 4238
3983 4320
3983 4337
3983 5147
3983 5267
3983 5445
3983 7246
3983 7254
3983 7369
3983 7567
3983 9123
3984 4334
3984 4664
3984 4976
3984 5031
3984 5719
3984 6139
3984 6480
3984 6640
3984 6676
3984 6728
3984 7076
3984 8124
3984 8267
3984 8772
3985 4290
3985 4418
3985 5725
3985 5885
3985 6192
3985 7658
3985 9017
3985 9018
3985 9074
3985 9797
3986 4224
3986 4729
3986 7202
3986 7611
3986 8052
3986 9111
3986 9725
3987 4099
3987 4662
3987 5026
3987 5218
3987 5291
3987 6397
3987 9060
3987 9957
3988 4591
3988 5064
3988 5395
3988 6438
3989 4782
3989 4826
3989 6549
3989 7331
3989 7905
3990 5250
3990 6337
3990 6793
3990 7003
3990 7316
3990 7863
3990 8003
3990 8549
3991 4024
3991 4284
3991 4511
3991 6470
3991 7195
3991 8074
3991 8173
3991 8261
3991 8526
3991 8894
3991 8900
3991 9101
3991 9225
3992 4568
3992 4800
3992 6413
3992 9374
3993 8704
3993 9497
3994 4868
3994 5691
3994 5718
3994 6761
3994 7356
3994 7823
3994 8947
3995 6524
3995 7363
3996 4546
3996 4959
3996 6748
3996 6842
3996 7360
3996 8117
3996 8560
3996 9454
3997 4739
3997 5163
3997 6255
3997 8296
3998 4456
3998 4763
3998 5860
3998 7617
3998 9856
3999 4049
3999 4602
3999 5489
3999 6826
3999 8038
3999 8865
3999 9996
4000 9211
4001 5500
4001 6738
4001 8919
4002 4148
4002 5333
4002 8627
4003 4186
4003 4309
4003 4940
4003 5693
4003 5915
4003 6036
4003 6167
4003 6252
4003 6669
4003 6876
4003 7024
4003 7623
4003 8365
4003 8738
4003 9257
4004 5675
4004 7230
4004 7656
4004 8800
4004 9404
4005 5921
4005 6081
4005 6096
4005 6212
4005 6844
4005 6879
4005 8477
4006 4187
4006 6234
4006 6658
4006 7057
4006 8044
4006 9049
4006 9317
4007 4549
4007 5519
4007 5754
4007 5777
4007 6113
4007 7038
4007 7206
4007 8770
4008 5245
4008 5394
4008 7181
4008 8380
4008 9929
4009 4027
4009 5437
4009 5848
4009 6190
4009 6602
4009 6685
4009 7605
4009 7620
4009 7804
4009 7973
4009 8418
4010 4582
4010 4940
4010 6589
4010 6846
4010 8266
4011 5229
4011 5335
4011 5361
4012 5256
4012 5458
4012 5518
4012 6412
4012 7035
4012 7408
4012 8207
4012 8677
4013 4311
4013 5701
4013 5744
4013 6849
4013 7142
4013 7514
4013 9693
4014 4178
4014 4366
4014 4682
4014 6067
4015 5230
4015 5290
4015 5504
4015 5687
4015 6369
4015 7650
4016 5150
4016 6755
4016 7025
4016 7033
4016 7795
4016 8530
4016 9986
4017 6617
4017 6907
4017 7621
4017 8556
4018 6415
4018 7811
4018 9617
4019 4264
4019 5835
4019 6766
4019 6832
4019 7598
4019 7847
4019 8037
4019 8372
4020 4309
4020 5481
4020 5749
4020 6950
4021 4998
4021 6284
4021 6759
4021 6802
4021 8656
4021 8695
4022 4074
4022 4312
4022 4400
4022 6543
4022 7882
4023 4770
4023 4960
4023 5722
4023 6450
4023 6719
4023 6946
4023 7734
4023 8447
4023 9881
4024 4057
4024 4282
4024 5031
4024 6315
4024 6800
4024 6907
4024 6927
4024 7383
4024 7562
4024 8132
4025 4172
4025 7780
4026 4752
4027 4104
4027 4482
4027 4891
4027 5251
4028 4888
4028 6507
4028 7172
4028 9649
4029 4633
4029 5131
4029 7361
4029 7523
4029 7866
4029 8210
4029 8983
4029 9469
4029 9658
4030 5079
4030 5557
4030 9379
4031 5743
4031 6912
4031 9848
4032 7445
4032 7700
4032 9971
4033 4978
4033 7362
4034 8788
4035 4791
4035 5480
4035 8786
4036 5061
4036 5327
4036 5392
4036 5558
4036 6666
4036 7225
4036 7960
4036 9134
4037 5072
4037 7227
4037 8520
4038 4334
4038 4460
4038 5703
4038 6296
4038 7653
4038 9602
4039 6532
4039 6827
4039 9105
4040 4189
4040 4622
4040 5856
4040 6761
4040 9164
4041 6239
4041 7604
4041 8147
4041 8547
4041 9476
4041 9568
4042 4767
4042 6486
4042 6543
4042 7610
4043 7876
4043 7909
4043 9333
4044 5352
4044 9452
4045 5641
4045 6171
4045 6707
4045 8610
4045 9519
4046 4809
4046 4902
4046 5924
4046 6234
4046 6320
4046 7776
4046 7982
4046 9457
4046 9868
4047 4519
4047 4907
4047 4971
4047 5312
4047 5398
4047 5580
4047 6229
4047 7122
4047 8600
4048 5456
4048 5508
4048 6490
4049 4207
4049 5159
4049 6910
4049 9191
4049 9944
4050 4063
4050 4187
4050 4430
4050 4618
4050 4775
4050 5271
4050 5285
4050 5837
4050 7972
4050 8638
4050 8821
4050 9326
4051 6891
4051 7713
4052 5043
4052 5930
4052 5955
4052 6505
4052 7176
4052 7338
4053 5523
4053 6415
4053 7343
4053 8754
4053 9103
4053 9901
4054 5608
4054 6091
4054 6313
4054 7474
4054 8509
4054 9317
4054 9746
4055 5358
4055 6207
4055 8589
4055 9630
4056 4632
4056 6803
4056 7210
4056 9934
4057 4458
4057 5159
4057 5775
4057 6890
4058 4701
4058 5377
4058 6097
4058 7213
4058 8318
4059 4555
4059 5171
4059 5940
4059 6159
4059 6388
4059 7179
4059 7465
4059 8952
4059 9375
4059 9449
4060 4108
4060 4653
4060 5100
4060 6318
4060 7333
4060 8886
4061 4288
4061 4635
4061 6793
4061 6941
4061 7246
4061 8390
4061 8757
4061 9447
4062 4913
4062 5619
4062 5644
4062 5781
4062 5813
4063 4109
4063 4346
4063 5005
4063 5824
4063 6960
4064 4481
4064 8133
4064 8356
4064 8907
4064 9365
4064 9642
4064 9980
4065 4504
4065 5326
4065 5832
4065 6921
4065 8921
4065 9124
4066 4114
4066 5761
4066 6945
4066 8100
4067 4925
4067 4933
4067 7014
4067 7070
4067 7241
4067 7412
4067 7964
4067 8824
4067 9127
4067 9941
4068 4125
4068 4144
4068 4288
4068 5748
4068 6707
4068 6970
4068 7037
4068 7543
4068 8097
4068 8165
4069 5695
4069 6247
4069 6821
4069 8781
4070 5910
4070 8350
4070 8502
4071 5715
4071 6042
4071 6903
4071 6973
4071 7781
4072 4505
4072 5083
4072 8344
4072 8401
4072 8471
4072 8568
4072 8933
4072 9220
4073 6199
4073 6434
4073 7607
4073 7781
4073 8187
4074 6214
4075 4844
4075 5427
4075 7483
4076 7069
4076 7082
4076 7469
4076 8345
4076 8456
4077 4405
4077 5826
4077 5934
4077 6729
4078 4900
4078 4983
4078 5658
4078 6564
4078 7712
4078 7740
4078 8457
4078 8832
4079 4595
4079 5858
4079 7923
4079 9726
4080 4365
4080 4616
4080 5000
4080 5970
4080 6043
4080 7919
4080 8560
4081 4895
4081 6688
4081 6970
4081 7728
4081 7804
4081 8308
4081 9164
4081 9553
4082 4719
4082 6326
4082 6499
4082 7234
4082 8098
4083 4521
4083 6945
4083 7501
4083 7564
4083 8469
4084 4584
4084 5494
4084 6465
4084 9387
4084 9635
4085 4875
4085 5490
4085 6109
4086 4318
4086 4411
4086 6531
4086 6856
4086 6940
4086 7624
4086 8396
4086 8784
4086 9706
4087 4267
4087 4409
4087 5509
4087 5985
4087 7108
4087 7183
4087 8468
4088 4228
4088 5344
4088 6726
4088 6896
4088 7204
4088 8129
4088 8415
4088 9296
4089 4170
4089 6831
4089 7162
4090 4094
4090 4384
4090 4399
4090 4521
4090 4763
4090 5338
4090 6302
4090 6725
4090 6751
4090 7187
4090 9050
4091 7642
4092 4248
4092 4274
4092 4364
4092 4625
4092 5026
4092 5237
4092 5746
4092 6183
4092 6315
4092 6529
4092 6551
4092 7404
4092 7430
4092 8258
4092 9592
4093 7894
4094 5206
4094 6248
4094 6836
4094 7222
4094 7633
4094 7684
4094 8617
4094 8919
4095 6840
4095 7370
4096 4879
4096 6749
4096 7294
4096 8276
4096 8855
4097 4117
4097 5960
4097 5998
4097 6668
4097 7191
4097 8210
4097 9694
4098 6971
4098 7157
4098 7353
4098 7380
4099 4167
4099 4582
4099 5113
4099 5526
4099 6255
4099 7864
4099 8267
4099 8911
4099 9826
4100 4141
4100 4275
4100 4617
4100 4915
4100 5785
4100 7043
4100 9427
4100 9545
4101 4354
4101 4974
4101 6086
4101 6704
4101 7115
4101 7434
4101 7516
4101 7684
4101 7989
4101 9224
4101 9648
4102 4820
4102 6266
4102 6624
4102 7135
4102 7423
4102 7693
4102 8972
4103 5704
4103 8246
4104 4418
4104 6103
4104 7576
4104 7871
4104 8167
4104 8314
4104 8649
4104 9613
4105 4144
4105 4392
4105 4490
4105 4644
4105 5348
4105 5387
4105 5639
4105 6417
4105 7244
4105 9114
4106 4758
4106 4799
4106 5311
4106 5701
4106 6307
4106 8939
4106 9869
4107 4408
4107 6515
4107 9164
4108 4955
4108 8614
4109 4741
4109 5709
4109 6518
4109 6572
4109 7435
4109 7498
4109 8323
4109 8525
4109 9703
4109 9917
4110 4174
4110 4604
4110 6109
4110 8591
4110 8792
4110 9053
4110 9096
4110 9366
4110 9569
4111 4202
4111 4907
4111 5215
4111 6046
4111 6180
4111 8794
4112 6153
4112 6564
4112 6784
4112 9441
4113 5025
4113 5881
4113 9307
4114 4143
4114 4535
4114 5924
4114 6350
4114 6580
4114 7089
4114 8333
4115 4772
4115 5854
4115 6351
4115 6830
4115 7381
4116 4189
4116 4395
4116 4591
4116 5005
4116 5951
4116 7238
4116 7586
4116 8049
4116 9022
4117 6265
4117 6912
4117 8244
4117 8837
4117 9361
4117 6554
4118 4665
4118 6303
4118 6753
4118 8720
4118 7103
4119 4252
4119 4537
4119 4598
4119 5905
4119 6334
4119 6544
4119 7053
4119 7160
4119 8489
4119 9398
4120 5646
4120 5921
4120 6060
4120 8107
4120 9494
4120 9866
4121 6818
4121 7356
4121 7977
4121 9188
4121 9416
4122 4161
4122 4228
4122 5941
4122 7907
4123 5203
4123 6087
4123 7410
4124 6199
4124 6345
4124 6489
4125 4395
4125 5318
4125 7222
4126 5018
4126 5608
4126 6826
4126 8586
4126 8949
4127 5232
4127 8471
4128 7144
4128 9116
4129 4568
4129 4947
4129 5138
4129 5626
4129 6768
4129 7657
4129 8791
4129 9254
4129 9285
4129 9570
4131 4703
4131 5861
4131 6141
4131 7191
4131 8152
4131 8247
4131 9661
4132 4215
4132 4599
4132 4839
4132 7652
4132 8641
4133 4489
4133 4992
4134 5891
4134 6853
4134 8088
4134 8293
4134 7568
4135 4931
4135 4942
4135 5944
4136 5022
4136 5998
4136 7311
4136 7580
4136 8078
4137 6995
4137 7768
4138 6210
4138 9199
4139 4191
4139 5097
4139 5374
4139 6119
4139 6474
4139 8782
4140 7125
4140 9334
4141 4372
4141 4629
4141 5456
4141 6517
4142 5337
4142 5619
4142 6415
4142 6727
4142 8019
4142 8095
4142 9801
4143 4558
4143 4574
4143 7217
4143 7366
4143 7485
4143 7766
4143 7883
4143 8547
4143 8997
4144 5368
4144 5681
4144 6347
4144 7878
4144 8125
4145 4830
4145 6953
4145 9262
4146 8929
4146 9023
4146 9477
4147 4685
4147 5360
4147 6248
4147 7970
4147 8214
4147 9450
4148 4488
4148 9723
4149 4525
4149 4764
4149 4918
4149 6255
4149 8209
4150 4946
4150 5963
4150 6077
4150 7649
4150 7685
4150 7702
4150 7963
4150 7968
4150 8860
4150 8906
4151 4515
4151 5034
4151 5213
4151 5346
4151 6148
4151 6441
4151 6683
4151 6799
4151 7121
4151 7851
4151 8608
4151 9135
4152 4468
4152 6335
4152 6515
4152 7298
4152 7665
4152 8541
4152 8558
4152 9594
4153 6168
4153 6474
4153 6534
4153 6660
4153 6769
4153 8596
4154 4278
4154 4922
4154 5792
4154 6301
4154 8043
4154 8773
4154 9200
4155 4747
4155 4915
4155 9560
4155 9690
4156 4607
4156 4721
4156 5135
4156 5219
4156 5581
4156 6230
4156 7764
4156 7950
4157 4993
4157 5046
4157 6345
4157 7836
4157 9314
4157 9341
4158 5645
4158 6096
4158 7155
4158 8077
4158 8728
4159 4514
4159 4611
4159 5830
4159 6157
4159 6696
4159 8187
4159 8470
4159 9214
4159 9823
4161 4886
4161 5987
4161 6161
4162 4338
4162 4724
4162 5267
4162 5462
4162 5518
4162 5735
4162 6529
4162 6627
4162 6794
4162 7381
4162 9147
4162 9594
4163 4461
4163 4512
4163 6001
4163 7300
4163 7953
4163 8837
4163 9174
4163 9740
4164 4968
4164 5139
4164 5555
4164 5600
4164 5979
4164 6882
4164 8823
4164 9148
4164 9217
4164 9440
4164 9648
4165 4492
4165 6603
4165 7094
4166 7296
4166 7657
4166 9971
4167 4325
4167 5379
4167 6270
4167 7218
4167 7311
4167 9255
4167 9754
4168 5062
4168 5707
4168 5772
4168 5992
4168 6509
4168 7022
4169 4559
4169 4872
4169 4898
4169 5220
4169 5641
4169 5739
4169 6022
4169 7550
4169 7825
4170 4342
4170 6642
4171 5802
4171 6321
4171 7450
4171 8308
4171 8481
4171 8557
4171 9985
4172 4834
4172 5022
4172 5897
4172 8751
4173 7482
4173 8078
4173 8306
4174 5335
4174 6403
4174 8084
4174 8601
4174 8625
4174 9198
4174 9524
4175 4767
4175 5442
4175 5667
4175 7102
4176 5851
4177 5539
4177 6089
4177 6993
4177 9402
4177 9494
4178 4566
4178 6589
4178 7327
4178 8282
4179 4180
4179 4713
4179 5149
4179 5245
4179 5426
4179 5919
4179 6015
4179 6199
4179 7118
4179 7374
4179 7980
4179 9177
4179 9726
4180 4391
4180 4873
4180 6225
4180 6603
4180 8335
4180 8557
4180 9680
4181 4481
4181 5112
4181 6891
4181 6964
4182 5404
4182 6715
4182 8212
4183 4429
4183 5105
4183 7832
4183 9460
4184 4361
4184 6168
4184 6972
4184 6976
4184 7688
4184 8558
4184 9889
4185 4196
4185 4528
4185 4770
4185 4896
4185 5064
4185 5439
4185 5604
4185 5885
4185 9090
4185 9174
4186 5633
4186 7848
4186 8608
4186 9584
4187 5002
4187 6006
4188 6792
4189 8240
4189 9695
4190 4507
4190 4744
4190 5175
4190 5518
4190 5988
4190 6331
4190 6351
4190 9378
4191 7976
4191 9282
4191 9303
4191 9654
4191 9879
4192 8502
4192 8805
4192 9220
4192 9385
4192 9749
4193 4506
4193 5571
4193 5871
4193 6789
4193 6851
4193 7140
4193 9308
4193 9326
4193 9452
4193 9537
4193 9540
4193 9727
4194 5094
4194 7118
4194 8103
4194 8839
4194 9838
4194 9859
4195 4776
4195 5139
4195 5256
4195 5503
4195 5511
4195 6352
4195 7064
4195 7313
4195 8017
4195 9394
4196 4532
4196 4596
4196 4972
4196 5041
4196 5805
4196 6514
4196 6719
4196 6864
4196 7655
4197 4246
4197 4909
4197 4940
4197 5136
4197 5603
4197 5780
4197 6036
4197 6123
4197 6141
4197 6554
4197 6670
4197 7566
4197 7745
4197 9903
4197 7392
4198 4813
4198 5786
4198 6532
4198 7461
4198 7563
4198 7992
4198 8510
4198 9780
4199 5414
4199 5419
4199 5832
4199 7934
4199 8239
4199 9083
4199 9874
4200 5720
4200 8122
4200 8519
4200 8699
4200 9376
4201 7531
4202 4227
4202 4297
4202 4897
4202 5069
4202 5488
4202 5536
4202 6813
4202 7941
4202 8049
4202 8889
4202 9470
4202 9619
4203 4589
4203 5236
4203 5876
4203 6347
4203 6546
4203 9052
4204 4362
4204 5280
4204 5853
4204 6343
4204 7045
4204 7324
4204 7625
4204 7677
4204 8781
4204 8806
4204 8818
4204 9127
4205 4615
4205 4982
4205 5967
4205 6264
4205 7725
4205 9040
4205 9119
4205 9554
4205 9569
4206 4268
4206 4841
4206 5382
4206 5971
4206 6278
4206 8114
4206 9736
4206 9767
4207 5510
4207 6093
4207 6884
4207 7006
4207 7218
4207 7252
4207 7377
4207 9255
4208 4546
4208 5501
4208 6013
4208 6295
4208 6517
4208 6663
4208 7441
4208 7675
4208 7902
4208 7947
4208 8000
4208 8123
4209 6672
4209 6799
4209 6980
4209 9286
4210 5160
4210 6723
4210 6881
4210 9452
4211 4367
4211 4417
4211 4502
4211 4671
4211 4924
4211 5455
4211 6374
4211 6563
4211 7830
4211 9321
4212 4603
4212 6172
4212 8064
4212 8222
4212 8628
4212 8642
4212 8728
4212 9656
4212 9837
4213 5246
4213 5401
4213 6427
4213 6669
4213 7103
4213 9613
4214 4871
4214 4974
4214 7885
4214 9157
4214 9721
4215 4966
4215 6747
4215 6860
4215 7252
4215 7309
4215 8985
4216 6347
4216 7767
4216 8661
4216 9140
4216 9244
4217 4829
4218 4775
4218 5664
4218 6312
4218 6342
4218 7367
4218 7412
4218 7456
4218 9932
4219 4786
4219 7268
4219 7755
4219 8099
4220 4894
4220 9514
4221 6707
4221 7889
4222 5030
4222 5453
4222 5596
4222 7314
4222 7729
4222 7934
4222 8071
4223 6099
4223 6306
4224 4284
4224 6294
4224 6304
4224 7350
4224 8196
4224 8276
4224 8525
4224 9864
4225 5433
4225 7797
4225 8929
4225 9959
4226 4732
4226 5801
4226 6251
4226 6691
4226 8162
4226 9029
4226 9382
4227 4232
4227 5425
4227 5768
4227 6306
4227 6549
4227 7056
4227 9849
4228 5730
4228 6865
4228 6973
4228 7336
4228 7456
4228 8291
4228 8892
4229 5823
4229 7449
4229 7558
4230 4482
4230 5224
4230 7470
4231 4259
4231 5129
4231 6568
4231 6852
4231 6967
4231 7522
4231 8866
4232 4345
4232 4566
4232 4901
4232 5224
4232 7245
4232 7481
4232 7570
4232 8640
4232 9212
4233 7119
4233 7357
4234 5185
4234 5785
4234 6120
4234 6340
4234 8302
4235 4258
4235 4919
4235 5849
4235 6090
4235 6498
4235 6753
4235 8009
4235 8156
4236 5612
4236 5955
4236 6453
4236 7193
4236 7640
4236 8238
4236 8938
4236 9076
4237 5244
4237 7198
4237 7744
4237 8181
4237 8857
4238 5518
4238 7713
4238 7998
4239 4493
4239 4524
4239 4725
4239 4911
4239 7122
4239 7816
4239 8163
4240 4978
4240 5134
4240 5527
4240 6001
4240 6107
4240 6162
4240 6281
4240 8422
4240 8498
4240 9500
4241 6351
4241 6441
4241 8448
4241 8631
4242 4897
4242 7281
4242 7327
4242 7332
4242 8389
4242 9911
4243 5201
4244 4955
4244 5066
4244 6334
4244 7597
4244 8867
4245 5261
4245 5415
4245 5472
4245 6042
4245 6477
4245 7049
4245 9218
4246 5857
4246 7782
4247 4288
4247 6248
4247 6893
4247 8561
4247 9284
4247 7617
4248 4282
4248 4848
4248 7993
4248 8502
4249 5031
4249 5399
4249 6333
4249 6746
4249 6902
4249 8310
4249 8742
4250 4930
4250 5471
4250 5655
4250 7110
4250 7597
4250 9344
4251 5057
4251 7635
4251 7768
4252 6049
4252 8825
4253 4803
4253 4832
4253 5042
4253 5403
4253 5514
4253 5908
4253 6195
4253 6479
4253 7458
4253 7969
4254 4722
4254 5957
4254 7960
4255 4866
4255 6307
4255 6637
4255 7324
4255 9447
4256 4945
4256 6316
4256 9122
4257 4857
4257 5675
4257 5855
4257 6106
4257 6134
4257 6243
4257 7405
4257 7848
4258 5094
4258 5565
4258 5954
4258 7980
4258 8315
4258 9524
4258 9716
4259 5437
4259 6386
4259 6990
4259 7814
4259 8008
4259 8838
4259 9474
4260 5230
4260 6108
4260 6194
4260 6764
4260 7171
4261 5624
4261 5953
4261 7218
4261 9432
4261 9512
4262 4344
4262 4960
4262 5321
4262 5371
4262 5459
4262 6324
4262 7250
4262 8247
4263 4381
4263 7829
4263 8981
4263 9400
4263 9726
4264 4880
4264 5742
4264 6386
4264 7389
4264 7986
4265 4360
4265 4922
4265 5486
4265 7011
4265 7335
4266 5120
4266 5172
4266 5981
4266 6907
4266 7764
4267 5460
4267 6136
4267 6911
4267 7748
4267 7948
4267 9042
4268 4391
4268 5757
4268 6961
4268 9645
4269 4520
4269 5122
4269 5124
4269 5176
4269 5179
4269 7476
4269 7512
4269 9317
4270 4457
4270 4628
4270 5332
4270 5371
4270 5561
4270 5687
4270 6127
4271 4298
4271 5287
4271 6899
4271 7826
4271 9023
4272 4284
4272 4305
4272 4550
4272 4610
4272 7188
4272 7420
4273 5771
4273 6163
4273 7492
4273 8707
4273 9070
4273 9194
4274 4304
4274 6550
4274 8271
4274 8793
4275 4304
4275 4586
4275 4680
4275 5555
4275 5936
4275 9693
4275 9921
4276 4760
4276 5739
4277 4696
4277 6661
4277 6807
4277 8944
4277 9066
4277 9636
4278 5556
4279 6727
4279 7145
4279 7526
4279 7532
4279 7554
4279 7897
4279 7942
4279 8925
4280 4993
4280 5468
4280 5670
4280 5765
4280 7620
4280 9271
4280 9791
4280 9835
4281 4297
4281 4584
4281 5402
4281 5460
4281 5760
4281 6562
4281 8871
4281 9580
4282 4764
4282 4943
4282 5086
4282 6728
4282 6751
4282 7925
4282 8419
4282 8907
4282 9295
4283 5108
4283 5189
4283 5233
4283 5758
4283 7607
4284 5436
4284 5891
4284 6169
4284 6210
4284 6722
4284 8002
4284 9563
4285 4578
4285 4938
4285 5232
4285 6599
4286 5232
4286 6173
4286 6746
4286 6911
4286 6929
4286 7685
4286 7950
4286 8019
4286 8741
4286 8832
4286 9219
4287 5155
4287 5757
4287 5811
4287 6674
4287 7530
4287 8189
4287 9953
4288 4443
4288 6064
4288 6376
4288 8289
4288 9858
4289 5076
4289 5140
4289 5473
4289 7264
4289 8573
4289 8585
4290 4377
4290 5952
4290 6219
4290 7322
4291 4428
4291 4459
4291 4843
4291 5305
4291 5933
4291 6047
4291 6632
4291 8737
4292 4806
4292 4851
4292 5259
4292 5453
4292 6660
4292 6784
4292 8007
4292 8356
4292 9632
4293 5504
4293 6661
4293 8854
4294 4706
4294 5322
4294 6276
4294 6306
4294 6837
4294 8192
4294 9284
4295 4364
4295 5538
4295 6145
4296 5467
4296 5626
4296 5889
4296 7157
4297 4429
4297 4494
4297 4756
4297 5135
4297 6794
4297 7584
4298 4868
4298 5024
4298 5140
4298 8677
4298 8858
4298 8885
4298 8985
4299 4979
4299 5665
4299 7166
4299 7416
4299 8293
4300 4716
4300 4736
4300 5544
4300 6845
4300 7369
4300 7497
4300 7919
4300 8165
4300 8273
4300 8810
4300 9849
4300 9887
4301 5336
4301 6083
4301 6531
4301 7523
4301 7951
4301 9290
4301 9446
4302 4550
4302 5914
4302 6191
4302 6791
4302 7029
4302 7119
4302 7583
4302 8810
4302 9275
4303 4403
4303 5988
4303 6104
4303 7228
4303 8253
4303 8569
4303 9041
4303 9517
4304 4788
4304 5827
4304 6669
4304 6763
4304 6941
4304 7091
4304 7483
4304 8959
4304 9657
4305 4307
4305 4691
4305 6526
4305 7213
4305 7267
4305 7325
4305 7761
4305 8451
4305 8595
4305 9551
4306 5165
4306 5905
4306 6248
4306 6629
4306 6641
4306 7476
4307 4522
4307 4856
4307 5126
4307 5438
4307 5822
4307 5889
4307 6424
4307 6490
4307 6966
4307 7385
4307 8150
4307 8588
4308 9370
4309 9162
4309 9224
4309 9487
4310 4509
4310 4717
4310 4940
4310 5494
4310 6648
4310 8025
4310 8254
4311 5730
4311 8146
4311 9505
4312 4692
4312 5059
4312 7216
4312 8255
4312 8556
4312 9686
4312 9733
4313 4343
4313 4457
4313 6187
4313 7543
4313 8287
4313 9158
4313 9250
4313 9339
4313 9965
4314 4951
4314 7072
4314 7631
4314 8568
4315 5896
4315 7046
4315 8227
4316 6200
4316 6278
4316 7195
4316 9824
4317 4338
4317 4871
4317 4995
4317 6487
4317 6913
4317 7529
4317 8307
4319 4560
4319 5929
4319 5930
4319 6569
4319 6829
4319 9465
4320 5355
4320 7963
4320 8264
4320 9871
4321 5302
4321 6064
4321 6227
4321 6250
4321 6577
4321 7333
4321 9094
4321 9372
4321 9671
4322 4494
4322 6920
4322 8223
4322 8887
4323 8805
4324 4904
4324 6429
4325 7397
4325 8160
4326 5523
4326 5769
4326 6182
4326 6383
4326 6659
4326 7566
4326 8288
4326 8455
4326 9643
4327 5422
4327 5576
4327 7727
4328 4626
4328 4924
4328 5283
4328 5362
4328 5545
4328 5634
4328 6228
4328 6321
4328 6407
4328 6819
4328 7041
4328 7995
4328 9024
4328 9245
4328 9762
4328 9973
4329 5429
4329 5668
4329 5987
4329 6309
4329 9633
4330 6013
4330 6703
4330 9949
4331 5305
4331 6724
4331 6870
4331 7585
4331 7602
4331 7828
4331 8307
4331 8717
4331 9183
4332 4352
4332 5046
4332 8235
4332 8865
4332 8934
4332 9305
4332 9785
4333 4425
4333 4507
4333 4546
4333 5468
4333 5607
4333 6448
4333 6584
4333 7831
4333 7964
4334 4551
4334 5051
4334 5712
4334 8079
4334 8317
4335 4603
4335 6475
4335 7325
4336 4559
4336 4814
4336 5369
4336 6388
4336 7268
4336 8173
4336 8255
4336 9352
4336 9671
4336 9926
4337 4932
4337 7977
4338 4893
4338 5222
4338 5284
4338 6567
4339 5502
4339 5825
4339 6438
4339 7074
4339 7145
4339 7722
4339 8366
4339 9039
4339 9557
4339 9670
4340 4790
4340 5127
4340 7961
4340 9158
4341 5590
4341 5620
4341 6207
4341 7217
4341 9038
4341 9979
4342 6916
4342 8589
4343 5214
4343 7482
4343 7824
4344 5195
4344 5360
4344 6124
4344 6521
4344 7420
4344 9678
4345 5234
4345 5647
4345 6190
4345 6699
4345 6720
4345 7355
4345 7549
4345 7858
4345 8815
4346 4815
4346 4828
4346 4997
4346 5278
4346 5322
4346 6086
4346 8183
4346 9064
4346 9079
4347 4898
4347 5601
4347 5784
4347 6345
4347 6742
4347 6979
4347 8252
4348 5928
4348 7575
4349 5393
4349 5911
4349 8986
4349 9662
4350 5562
4350 8302
4351 5160
4351 5185
4351 5578
4351 8073
4352 6662
4352 7484
4352 9884
4353 6158
4353 9803
4354 4896
4354 5294
4354 6570
4354 7479
4354 8617
4355 4531
4355 4845
4355 5160
4355 6856
4355 6954
4355 7187
4355 7467
4355 8060
4355 9017
4356 4610
4356 5968
4356 6038
4356 7672
4357 4907
4357 5539
4357 5821
4357 7323
4357 9260
4358 5023
4358 5447
4358 6528
4358 6749
4358 8042
4358 9806
4359 6237
4359 9931
4359 9983
4360 6844
4361 4682
4361 5393
4361 6560
4361 7942
4361 8112
4361 8385
4362 4961
4362 6593
4362 8233
4362 9577
4363 4459
4363 4888
4363 5111
4363 7583
4364 4724
4364 4912
4364 6326
4364 8458
4364 8786
4364 9582
4365 4678
4365 5122
4365 5255
4365 5993
4365 6918
4365 7774
4365 8105
4365 8155
4366 4618
4366 6120
4366 6416
4366 7263
4367 4629
4367 5085
4367 6718
4367 7405
4367 9346
4368 4745
4368 6423
4368 6818
4368 9089
4368 9465
4369 4398
4369 5410
4369 6773
4369 7739
4369 7888
4369 8694
4369 9837
4370 6598
4370 7941
4370 9151
4371 4850
4371 5585
4371 7093
4372 5124
4372 5274
4372 7001
4372 7766
4372 8121
4372 8298
4372 9406
4373 5105
4373 5375
4373 7268
4373 7445
4373 8612
4374 4570
4374 4651
4374 4832
4374 4866
4374 5147
4374 5200
4374 5269
4374 5406
4374 6706
4374 6815
4374 7647
4374 8803
4374 8899
4375 4677
4376 4388
4376 4683
4376 5708
4376 7159
4376 7590
4376 8444
4376 9811
4377 4396
4377 4802
4377 4956
4377 5802
4377 5883
4377 6241
4377 6476
4377 6874
4377 8391
4377 8802
4378 4655
4378 6437
4378 7028
4378 7566
4378 8653
4378 9065
4378 9513
4379 4441
4379 5642
4379 7581
4379 7825
4380 4894
4380 4958
4380 8254
4381 4507
4381 6415
4381 6498
4381 6642
4381 7059
4381 8549
4381 8853
4381 9232
4381 9562
4382 4522
4382 7088
4383 4443
4383 4669
4383 7386
4383 7941
4383 8540
4384 6390
4384 7359
4384 8505
4385 6375
4385 7619
4386 4682
4386 4920
4386 5413
4386 8934
4387 4485
4387 6045
4387 6059
4387 9649
4388 4958
4388 5073
4388 6442
4388 7440
4388 8401
4389 4557
4389 5465
4390 5769
4390 7281
4390 7478
4390 8480
4390 8840
4390 9491
4390 9990
4391 4453
4391 8070
4391 8742
4391 9453
4391 9714
4392 5444
4392 7948
4392 8634
4392 8650
4392 8705
4393 4699
4393 9875
4394 4860
4394 5016
4394 5302
4394 6231
4394 6804
4394 9813
4395 5674
4395 5920
4395 6577
4395 6929
4395 7899
4395 8720
4395 9152
4396 5939
4396 6385
4396 6594
4396 6693
4396 7638
4396 7859
4397 4884
4397 5492
4397 6997
4397 8475
4397 9919
4398 5708
4398 6176
4398 6763
4398 6998
4398 7370
4399 4401
4399 6535
4399 7004
4399 8922
4399 9129
4400 4420
4400 5380
4400 6304
4400 6914
4400 7589
4400 8571
4400 9405
4401 4496
4401 5051
4401 5502
4401 5748
4401 6524
4401 7199
4401 8116
4401 8671
4401 9661
4402 6822
4402 7454
4402 7714
4402 7758
4402 9850
4403 5875
4403 7135
4403 8194
4403 8379
4403 9090
4403 9148
4404 5003
4404 5089
4404 8575
4404 8787
4404 9467
4404 9640
4405 5000
4405 5090
4405 5631
4405 6480
4406 4693
4406 5233
4406 5397
4406 8240
4406 8571
4406 8888
4407 4790
4407 8185
4407 9652
4408 4445
4408 4506
4408 5032
4408 5297
4408 5319
4408 5586
4408 6486
4408 7673
4408 7743
4408 8331
4408 8929
4409 4698
4409 8284
4409 8708
4410 4711
4410 4780
4410 5416
4410 5830
4410 7323
4410 7399
4410 7822
4410 8618
4410 8965
4410 9375
4411 5783
4411 6006
4412 6098
4412 6682
4412 7590
4412 7597
4412 9239
4412 9520
4413 4517
4413 4808
4413 5373
4413 6273
4413 7307
4413 7534
4413 8488
4414 5121
4414 6013
4414 6447
4414 6689
4414 8289
4414 9236
4414 9472
4415 5243
4415 7231
4415 7595
4416 6644
4416 7177
4416 8062
4416 8774
4416 9483
4416 9611
4417 4471
4417 4676
4417 5220
4417 5628
4417 7637
4417 7878
4417 8591
4418 5256
4418 7574
4418 9417
4419 7783
4419 8050
4419 8119
4420 6362
4420 8926
4420 9902
4421 5048
4421 6935
4421 8884
4422 4485
4422 5098
4422 5220
4422 5554
4422 6166
4422 6515
4422 6629
4422 6893
4422 7510
4422 7616
4422 8155
4423 4525
4423 7351
4423 7747
4423 9030
4423 9103
4423 9761
4424 4855
4424 5082
4424 5450
4424 5601
4424 5605
4424 6759
4424 7547
4424 7854
4424 9452
4424 9856
4424 9858
4424 9951
4425 4820
4425 5358
4425 5998
4425 6697
4425 7350
4425 7645
4425 7889
4425 9728
4425 9822
4425 9930
4426 5472
4426 5649
4426 6295
4427 5760
4427 8179
4428 6081
4428 6185
4428 6455
4428 7612
4428 9807
4429 4556
4429 4813
4429 5350
4429 7914
4430 7321
4430 8821
4430 9422
4431 4916
4431 5489
4431 6913
4432 5775
4432 5941
4432 6531
4432 6886
4432 7594
4432 8038
4432 8219
4433 5212
4433 7844
4433 8015
4433 9532
4434 4863
4434 6521
4434 6954
4434 8285
4435 4886
4435 6030
4436 5690
4436 8610
4436 9546
4437 5541
4438 6524
4438 6679
4438 8170
4439 4962
4439 5262
4439 6967
4439 7483
4439 7760
4439 8046
4439 8729
4439 4940
4440 4464
4440 8110
4440 9310
4441 5157
4441 5705
4441 7214
4441 9758
4441 9954
4442 5166
4442 5641
4442 5856
4442 8612
4442 9815
4443 4608
4443 4863
4443 5749
4443 5920
4443 6861
4443 7812
4443 9265
4443 9872
4444 6631
4444 7058
4444 8154
4445 4508
4445 6178
4445 6639
4445 6693
4445 6932
4445 7138
4445 9024
4445 9245
4445 9418
4445 9820
4446 4629
4446 6312
4446 6561
4447 5100
4447 6259
4447 7444
4448 4571
4448 5285
4448 6791
4448 9322
4449 4815
4449 6045
4449 6654
4449 6792
4449 7718
4449 7932
4449 8551
4449 8597
4449 8664
4449 8952
4449 9431
4449 9851
4450 5374
4450 6920
4450 9288
4451 5027
4451 5550
4451 9314
4451 9601
4451 9761
4452 4735
4452 4892
4452 6312
4452 7055
4452 7624
4452 8318
4452 8390
4452 9510
4452 9984
4453 8209
4453 8606
4453 9259
4453 9964
4454 6326
4454 9496
4455 4799
4455 5514
4455 5935
4455 6091
4455 6280
4455 7415
4455 9300
4455 9518
4455 9970
4456 5434
4456 5468
4456 6311
4456 6539
4456 6542
4456 9805
4457 4618
4457 4644
4457 5114
4457 8141
4457 9170
4458 4944
4458 5128
4458 5450
4458 5798
4458 6613
4458 8039
4458 8413
4458 8878
4459 4917
4459 5089
4459 5522
4459 5617
4459 5910
4459 6623
4459 7173
4459 7407
4459 7603
4459 9323
4460 5424
4460 5680
4460 7717
4460 7778
4460 8817
4461 6858
4462 6000
4462 6685
4462 7203
4462 8717
4462 8885
4463 4730
4463 4794
4463 5202
4463 6697
4463 9307
4464 5981
4464 6440
4464 6690
4464 6907
4464 8904
4465 4939
4465 6438
4465 6523
4465 7833
4465 9351
4466 4656
4466 4758
4466 4781
4467 4520
4467 6428
4467 6587
4467 7388
4467 8592
4467 8872
4467 9952
4468 5250
4468 7726
4468 8145
4468 8190
4468 9964
4469 5022
4469 5624
4469 5854
4469 5891
4469 6605
4469 7035
4469 7091
4470 8126
4471 7113
4471 7187
4472 5372
4472 6761
4473 5694
4473 5812
4473 5895
4473 6772
4473 6885
4473 7074
4473 7768
4473 8349
4474 4538
4474 5211
4474 6041
4474 6380
4474 7028
4474 8849
4474 9183
4474 9302
4474 9313
4474 9785
4475 5529
4475 5845
4475 6590
4475 8111
4475 9396
4476 6395
4476 6526
4476 7182
4476 7531
4476 8542
4477 7574
4477 8110
4477 8947
4478 6933
4478 8769
4478 9666
4479 4516
4479 4843
4479 5797
4479 5810
4479 6279
4479 7490
4479 8295
4479 9711
4480 4669
4480 5046
4480 5459
4480 5680
4480 6244
4480 6408
4480 8117
4480 8335
4480 8342
4480 8435
4480 8523
4481 5507
4481 7651
4481 8966
4482 4909
4482 6442
4482 6868
4482 7010
4482 9266
4483 8320
4483 8884
4484 6593
4484 9412
4485 5882
4485 6610
4485 8598
4486 6479
4486 6828
4486 8778
4486 8902
4487 4539
4487 4719
4487 4862
4487 5103
4487 5334
4487 5642
4487 6422
4487 6484
4487 7538
4487 7689
4487 8705
4487 9132
4487 9548
4487 9788
4488 5862
4488 6248
4488 7485
4489 5934
4490 7179
4490 7328
4490 8244
4490 9108
4491 4682
4491 5161
4491 8155
4491 8636
4491 7413
4492 7394
4492 8400
4493 4630
4493 5515
4493 8471
4493 9179
4493 9693
4494 4512
4494 4963
4494 6565
4494 7097
4494 7421
4494 7668
4494 8609
4494 9720
4495 4569
4495 4962
4495 5137
4495 5961
4495 6815
4496 7041
4496 7660
4497 4560
4498 8104
4499 6068
4499 8467
4500 4654
4500 4751
4500 4758
4500 5583
4500 5643
4500 6410
4500 6516
4500 6537
4500 6897
4500 8377
4500 8617
4501 4874
4501 6128
4501 6722
4501 9330
4502 5719
4502 6673
4502 9012
4502 9634
4502 9787
4503 4931
4503 5509
4503 5672
4503 7016
4503 7017
4503 7140
4503 7362
4503 7428
4503 7517
4503 9074
4503 9422
4504 5241
4504 5416
4504 6188
4505 5063
4506 4996
4506 8944
4506 9269
4507 4998
4507 5475
4507 6437
4508 4709
4508 5709
4508 6229
4508 6636
4508 7259
4508 7513
4508 7901
4508 8901
4509 5101
4509 5250
4509 5557
4509 5688
4509 7169
4509 7386
4509 8883
4510 4676
4510 5066
4510 8833
4510 9484
4511 6211
4511 9985
4512 6377
4512 7020
4512 7232
4512 8243
4513 5549
4513 6266
4513 8005
4513 8372
4514 4587
4514 8355
4515 4649
4515 4839
4515 5640
4515 7660
4516 5880
4516 6065
4516 7180
4516 7283
4516 8461
4516 9195
4517 4794
4517 4885
4517 4946
4517 5309
4517 5723
4517 7133
4517 8343
4517 9090
4518 4784
4518 5693
4518 5788
4518 6845
4518 7114
4518 7774
4518 8453
4518 8630
4518 9657
4519 4742
4519 5316
4519 7233
4519 7698
4519 7800
4519 8498
4519 9334
4520 6503
4520 7808
4520 9625
4521 5017
4521 5276
4521 6260
4521 7664
4521 8320
4521 9132
4522 4938
4522 6242
4522 7330
4522 8491
4522 9085
4522 9456
4522 9979
4523 6978
4523 8029
4524 6747
4524 8794
4525 4576
4525 5154
4525 6741
4525 6985
4525 7023
4525 7182
4525 7475
4525 8310
4525 8491
4525 8932
4525 9162
4526 5745
4526 6195
4526 8036
4526 9701
4527 6452
4527 6960
4527 8130
4527 8225
4528 5764
4528 6420
4528 6468
4528 6785
4528 7257
4529 4765
4529 4829
4529 6247
4529 6690
4529 6836
4529 7141
4529 9302
4529 9498
4530 5240
4530 5973
4530 6133
4530 8962
4531 4535
4531 4801
4531 5149
4531 8604
4532 5153
4532 6619
4533 4876
4533 5543
4533 6469
4534 5666
4534 6956
4534 7159
4534 7275
4534 8948
4534 9154
4534 9718
4535 4724
4535 6662
4535 7378
4535 8245
4535 9234
4536 6495
4536 7600
4536 9030
4537 4792
4537 5408
4537 7091
4538 5134
4538 6771
4538 6823
4538 7124
4539 4575
4539 4635
4539 4651
4539 6024
4539 6095
4539 6892
4539 7695
4539 7701
4540 5842
4540 6011
4540 6275
4540 6541
4540 7339
4540 7432
4540 7603
4540 8112
4540 8698
4541 5360
4541 9397
4542 4848
4542 5344
4542 5749
4542 6342
4542 6951
4542 7274
4542 7360
4542 7779
4543 4793
4543 5436
4543 5638
4543 5802
4543 6494
4543 7185
4543 8435
4544 4907
4544 5237
4544 5247
4544 6406
4544 7485
4545 5229
4545 8984
4546 4924
4546 5058
4546 5294
4546 6536
4546 6713
4546 6993
4547 4970
4547 5369
4547 5867
4547 6283
4547 7024
4547 7248
4548 4657
4548 6539
4548 7119
4548 7922
4548 8191
4548 9030
4548 9167
4549 4957
4549 5739
4549 7042
4549 7146
4549 8376
4549 8583
4549 9601
4550 6977
4550 8867
4551 5355
4551 5975
4551 6901
4551 7080
4552 4833
4552 4954
4552 5050
4552 5730
4552 8190
4552 8460
4552 9160
4552 9205
4553 5354
4553 6612
4553 7927
4553 8209
4553 8273
4553 8316
4553 8464
4553 8583
4554 5341
4554 6846
4554 7397
4554 8215
4554 9859
4555 5713
4555 6266
4555 8458
4555 9887
4556 5052
4557 6527
4557 7977
4557 9277
4557 9291
4558 5113
4558 6295
4558 6854
4558 7071
4558 7356
4558 7455
4558 8263
4558 8926
4558 9171
4559 4818
4559 5228
4559 5257
4559 5966
4559 6506
4559 7523
4559 9949
4560 4734
4560 5280
4560 5478
4560 5815
4560 5936
4560 6222
4560 6828
4560 7357
4560 7774
4561 5899
4561 5911
4561 5933
4561 7659
4561 7672
4561 8027
4561 8726
4561 8875
4561 8910
4562 4621
4562 6600
4562 7144
4562 7383
4562 8186
4562 9419
4563 4870
4563 5673
4563 6260
4563 6594
4563 7636
4563 9288
4563 9536
4564 4779
4564 5681
4564 9645
4565 5645
4565 8007
4566 5196
4566 7045
4566 7839
4566 9133
4566 9775
4567 6053
4567 8119
4567 9494
4568 4660
4568 5668
4568 5864
4568 7001
4568 8020
4568 8093
4568 9442
4569 5820
4569 9680
4570 7753
4571 5633
4571 7350
4571 8187
4571 8275
4571 8467
4571 9607
4571 9754
4573 6571
4573 7470
4573 7565
4573 9227
4573 9403
4573 9568
4574 4703
4574 4895
4574 5144
4574 5255
4574 6367
4574 9580
4574 9722
4575 5209
4575 5256
4575 8181
4575 9428
4575 9756
4576 5909
4576 7418
4576 8122
4576 9851
4577 4696
4577 4948
4577 5186
4577 6244
4577 6965
4577 7121
4577 7697
4577 8718
4578 5057
4578 5959
4578 8536
4579 4640
4579 4922
4579 5894
4579 6882
4579 9110
4580 4695
4580 7537
4580 7664
4580 8539
4580 8817
4581 6624
4581 9247
4582 8863
4583 7092
4583 8832
4584 4733
4584 4941
4584 5689
4584 9143
4585 4805
4585 5006
4585 5919
4585 6675
4585 7648
4585 7968
4586 9630
4587 7227
4588 4855
4588 5529
4588 5667
4588 6065
4588 6205
4588 7137
4588 8282
4588 8800
4588 8958
4588 9318
4588 9403
4588 9451
4588 9776
4589 5782
4589 6093
4589 8633
4590 5903
4590 7036
4590 8642
4591 5952
4591 6832
4591 7237
4591 7842
4591 8696
4591 9925
4592 4921
4592 5155
4592 6479
4593 5976
4593 6173
4593 7059
4593 8503
4593 8685
4594 7116
4594 7691
4594 8631
4595 4663
4595 4723
4595 6281
4595 6323
4595 7648
4595 9410
4596 4862
4596 4998
4596 6930
4596 6996
4596 9833
4596 9987
4597 7293
4598 4896
4598 5282
4598 5348
4598 5461
4598 5888
4598 6322
4598 7896
4598 8403
4598 8698
4599 5448
4599 5960
4599 6780
4599 7439
4599 8274
4599 8990
4600 8287
4600 9123
4600 9575
4601 4834
4601 5758
4601 5964
4601 7304
4601 8218
4601 8756
4602 5978
4602 6087
4602 6462
4602 6489
4602 7244
4602 7808
4602 9981
4603 6261
4603 9306
4604 5418
4604 5554
4604 5772
4604 8501
4604 9707
4605 4849
4605 5357
4605 5664
4605 5868
4605 9050
4605 9301
4605 9615
4606 6527
4606 6834
4606 8145
4606 8569
4606 8678
4607 4845
4607 4908
4607 4993
4607 5001
4607 5332
4607 6450
4607 8097
4608 4750
4608 5116
4608 5130
4608 5196
4608 6645
4608 6687
4608 6774
4608 8234
4608 9083
4608 9479
4609 9319
4610 5860
4610 8770
4610 8904
4611 5140
4611 5931
4611 6106
4611 6976
4611 7087
4611 7522
4611 7692
4611 8937
4612 5031
4612 6424
4612 7098
4612 7736
4612 9631
4613 6011
4613 6152
4613 6693
4613 8109
4613 8651
4614 5482
4614 5686
4614 6198
4614 7830
4614 8661
4615 5291
4615 7410
4615 8542
4615 9135
4616 4844
4616 5268
4616 8530
4616 9337
4617 7369
4618 5381
4618 5572
4618 7560
4618 7745
4618 8825
4619 6286
4619 6410
4619 8930
4620 4676
4620 6517
4620 8335
4620 9241
4620 9659
4620 9875
4621 4891
4621 5934
4621 6910
4621 7660
4622 5169
4622 5868
4622 6488
4622 8040
4622 9338
4623 5561
4623 6498
4623 8377
4623 8731
4624 8159
4624 9774
4625 4728
4625 6129
4625 6536
4625 9069
4625 9256
4626 5544
4626 5718
4626 7107
4627 5023
4627 6423
4627 6639
4627 6760
4627 7152
4628 7951
4628 9199
4629 5423
4629 7032
4629 7444
4629 9724
4630 5051
4630 7286
4630 8812
4630 8899
4630 9741
4630 9764
4631 9585
4632 5776
4632 6028
4632 6208
4632 7726
4632 9830
4633 8217
4634 4725
4634 4874
4634 5282
4634 6151
4634 6726
4634 7161
4634 7490
4635 8682
4636 6472
4636 8374
4636 9679
4637 4822
4637 5162
4637 7381
4637 9184
4638 7822
4638 7881
4638 9897
4639 4881
4639 5467
4639 6801
4640 4837
4640 5097
4640 8220
4640 9087
4641 5242
4641 5538
4641 7417
4642 4645
4642 9692
4643 4695
4643 9155
4643 9596
4643 9892
4644 4736
4644 7970
4645 4764
4645 5127
4645 5425
4645 6877
4645 7355
4645 7659
4645 8383
4646 8604
4647 6023
4647 6066
4647 6089
4647 7869
4647 7937
4647 8529
4647 8793
4647 9030
4648 6630
4648 7794
4648 8366
4648 8897
4649 4917
4649 4932
4649 7015
4650 7108
4650 8697
4651 6505
4651 9812
4652 4692
4652 5154
4652 5156
4652 9704
4652 7745
4653 4800
4653 5240
4653 9899
4654 6190
4654 6740
4654 9232
4654 9470
4655 4930
4655 5159
4655 5333
4655 5462
4655 5837
4655 7139
4656 4663
4656 5892
4656 6876
4656 7510
4656 9856
4657 5504
4657 5882
4657 8060
4658 5065
4658 5484
4658 6075
4658 6910
4658 7616
4658 8269
4659 5239
4659 5532
4659 6277
4659 8343
4660 6157
4660 7301
4660 7637
4660 7844
4660 9048
4660 9404
4661 5612
4661 6091
4661 6430
4661 6783
4661 9165
4662 4673
4662 4824
4662 4900
4662 6088
4662 6558
4662 6897
4662 9455
4662 9977
4662 9982
4663 9359
4664 5221
4664 5584
4664 7892
4664 7934
4664 8318
4665 6277
4665 9924
4666 6900
4666 7373
4666 9043
4666 9211
4667 5606
4667 6852
4667 8320
4667 8501
4667 8660
4667 9218
4667 9392
4667 9431
4668 5564
4668 6420
4668 6437
4668 7376
4668 7776
4668 7777
4668 9194
4669 4943
4669 6166
4669 6739
4669 7016
4669 9032
4670 4828
4670 6156
4670 7184
4670 9595
4671 5819
4671 6620
4671 6633
4671 9425
4671 9921
4672 4906
4672 5167
4672 5331
4672 7262
4672 7369
4672 8520
4672 8613
4672 9216
4672 9227
4672 9955
4673 5780
4673 7349
4673 8054
4673 9244
4674 6003
4674 9378
4675 4700
4675 6599
4675 7729
4675 9210
4676 7377
4676 7937
4676 8286
4676 8603
4676 8764
4676 9833
4676 9847
4676 9896
4677 4846
4677 6678
4677 7385
4677 7685
4677 8969
4678 4869
4678 4898
4678 5220
4678 5784
4678 7378
4678 7409
4678 8048
4678 8369
4678 9590
4679 6003
4679 8243
4679 8639
4679 8910
4679 9904
4680 4750
4680 4910
4680 5137
4680 5381
4680 5698
4680 5943
4680 6525
4680 8451
4680 8954
4681 6855
4681 7123
4681 8452
4681 9548
4682 4689
4682 5496
4682 5582
4682 5725
4682 6169
4682 6984
4682 7319
4682 8537
4682 8555
4682 9788
4683 4923
4683 5067
4683 5346
4683 6394
4683 7313
4683 9826
4683 9888
4684 4765
4684 6844
4684 6933
4684 7771
4684 9938
4685 4959
4685 5843
4685 9211
4687 4756
4687 5444
4687 7191
4687 9092
4688 4832
4688 5118
4688 5564
4688 7842
4688 9449
4689 5409
4689 6357
4689 9461
4690 4793
4690 4949
4690 5114
4690 6565
4690 6712
4691 5174
4691 5386
4691 6288
4691 7258
4691 9066
4691 9248
4692 5332
4693 4833
4693 8332
4693 9518
4695 5391
4695 5877
4695 7605
4695 9647
4696 4936
4696 5565
4696 6051
4696 6734
4696 7622
4696 8126
4696 8218
4697 4746
4697 5963
4697 6145
4697 7335
4697 7549
4697 8759
4698 4878
4698 6971
4698 8728
4698 9232
4699 5659
4699 9770
4700 5075
4700 5649
4700 6009
4700 7209
4700 7394
4700 7431
4700 8784
4701 6860
4701 6889
4701 7680
4701 8196
4702 9154
4703 5833
4703 6120
4703 7800
4703 7819
4703 8818
4704 5476
4704 6679
4704 8310
4705 5194
4705 6282
4705 6882
4705 8592
4705 9467
4706 5003
4706 5816
4706 6789
4706 7003
4706 7188
4706 7235
4706 8697
4706 8827
4706 8849
4707 5974
4707 6196
4707 6340
4707 8301
4707 8899
4708 8148
4708 9881
4710 5397
4710 5769
4710 7714
4711 5853
4711 8158
4711 9281
4712 4912
4712 5222
4712 5424
4712 6327
4712 6694
4712 7226
4712 7783
4712 9670
4713 5859
4713 6324
4713 6777
4714 6533
4714 7030
4714 8525
4714 8778
4714 9159
4715 6985
4715 7393
4715 7436
4715 8488
4716 5450
4716 6302
4716 6674
4717 6206
4717 6799
4719 4913
4719 5186
4719 5395
4719 8108
4719 8693
4719 9210
4720 5958
4720 6833
4720 7054
4720 7078
4720 7496
4720 7554
4720 7642
4720 9408
4721 6307
4721 7780
4722 6029
4722 6041
4722 7371
4722 9274
4722 9825
4723 4840
4723 5198
4723 5279
4723 5871
4723 6737
4723 7433
4723 9487
4723 9607
4724 6073
4724 6942
4724 7613
4724 8643
4724 8856
4724 9342
4724 9949
4725 5170
4725 5344
4725 5747
4725 5920
4725 9379
4725 9816
4726 6518
4726 7349
4726 7889
4726 8492
4726 9733
4727 5054
4727 6619
4727 7789
4727 9149
4727 9741
4728 5826
4728 6580
4728 6634
4728 6851
4728 8992
4728 9948
4729 6805
4730 4736
4730 7323
4730 9378
4732 4871
4732 6360
4732 6813
4732 7487
4732 8641
4733 5699
4733 6362
4733 8428
4733 9156
4734 5646
4734 9841
4735 5149
4735 5984
4735 7760
4735 8808
4736 6798
4736 7525
4736 6452
4737 6804
4737 6849
4737 8183
4737 8506
4738 5443
4738 6426
4738 6805
4738 6822
4738 7204
4738 7983
4738 9384
4738 9768
4738 9778
4738 9950
4739 4870
4739 5214
4739 6309
4739 8288
4739 9376
4739 9499
4740 5287
4740 6027
4740 6201
4741 5785
4741 8017
4741 8960
4742 4928
4742 7925
4743 9183
4743 9646
4744 4955
4744 5157
4744 6204
4744 7548
4744 9228
4745 5388
4745 5606
4745 6998
4745 7102
4745 7727
4745 8475
4746 4980
4746 5125
4746 6275
4746 7107
4746 9654
4747 6561
4747 8730
4747 9552
4747 9625
4748 6065
4748 6242
4748 6545
4748 6778
4748 6955
4748 7340
4748 7712
4748 9539
4749 6966
4749 7392
4749 7816
4749 7935
4750 8378
4751 5179
4751 5452
4751 5980
4751 9444
4752 5149
4753 6417
4753 7949
4754 4877
4754 6199
4754 6364
4754 6382
4754 8255
4754 8752
4754 9278
4754 9546
4755 4881
4755 6135
4755 6357
4755 6858
4755 7317
4755 8082
4755 9164
4755 9412
4756 5033
4756 5145
4756 5432
4756 5989
4756 6490
4756 6575
4756 6695
4756 7375
4756 7487
4757 6147
4757 6222
4757 8041
4757 8663
4757 9522
4758 6080
4758 6873
4758 9834
4759 4995
4759 5947
4759 7101
4759 8566
4759 9402
4760 5377
4760 6075
4760 9504
4761 5002
4761 5009
4761 7896
4761 8133
4761 8259
4761 8503
4761 8863
4762 7158
4762 7206
4763 5666
4763 5704
4763 6555
4763 6748
4763 8168
4764 6227
4764 7799
4764 7929
4765 5966
4765 6177
4765 9694
4765 9772
4766 6453
4766 6628
4767 4963
4767 5285
4767 5671
4768 5313
4768 5655
4768 8630
4768 8689
4769 5361
4769 5595
4769 6024
4769 8334
4769 8674
4769 8825
4770 5187
4770 5826
4770 6052
4770 6987
4770 8110
4771 4826
4771 6057
4771 8412
4771 8704
4772 8303
4772 9677
4772 9853
4773 5373
4773 6817
4773 7262
4774 4831
4774 7681
4774 8258
4774 9422
4775 4874
4775 5408
4775 5965
4775 7955
4775 8531
4775 9906
4776 6877
4776 8757
4776 9612
4777 4808
4777 4883
4777 5985
4777 7876
4778 4936
4778 5065
4778 5945
4778 6374
4778 7151
4778 7175
4778 7381
4778 7534
4778 7547
4778 7548
4778 7701
4778 7844
4778 7909
4778 8942
4778 9001
4778 9062
4779 4867
4779 6541
4779 7643
4780 6069
4780 7099
4780 7872
4780 8168
4780 8443
4781 5070
4781 7105
4781 8147
4781 8225
4781 9249
4781 9673
4782 5195
4782 5439
4782 5765
4782 5830
4782 6361
4783 5047
4783 5858
4783 6177
4783 7091
4783 7794
4783 8088
4783 8593
4783 8920
4783 9031
4783 9758
4784 5422
4784 6191
4784 6680
4784 7578
4784 8848
4784 9868
4785 5115
4785 6444
4785 7360
4786 5295
4786 5551
4786 5647
4786 6412
4786 7562
4786 8024
4786 8646
4786 9171
4787 8726
4788 5181
4788 5199
4788 5864
4788 8112
4789 4812
4789 4937
4789 4987
4789 4998
4789 5201
4789 5871
4789 6223
4789 6711
4789 6834
4789 7612
4789 8725
4789 9296
4790 4946
4790 7260
4791 4796
4791 5032
4791 6458
4791 7461
4791 9041
4793 5146
4793 7275
4793 7439
4793 7541
4793 7933
4794 6295
4794 6579
4794 6762
4794 7034
4794 9449
4794 9484
4795 4991
4795 5986
4795 8395
4795 9116
4796 6295
4797 8114
4797 8517
4798 7213
4798 7298
4798 7557
4798 8648
4799 6583
4799 6677
4799 7641
4800 5264
4800 6488
4800 8817
4801 5702
4801 5792
4801 8341
4802 5789
4802 6983
4802 7525
4802 7690
4802 8991
4802 9710
4803 5425
4803 5829
4803 7311
4803 7884
4803 8517
4803 8866
4804 6618
4804 8518
4804 9360
4804 9566
4805 5096
4805 5207
4805 6061
4805 6877
4805 7095
4806 6141
4806 6791
4806 6918
4806 7750
4806 8338
4806 9134
4806 9845
4806 9917
4807 6393
4807 6734
4807 6845
4807 7931
4807 8379
4807 9639
4808 6262
4808 6322
4808 6625
4808 6875
4808 8357
4808 9161
4809 6951
4809 7569
4809 8332
4810 5239
4810 5535
4810 5584
4810 6052
4810 7042
4810 8430
4811 9486
4811 9543
4812 7623
4812 8704
4812 8766
4813 4827
4813 5652
4813 6088
4813 7137
4813 7662
4813 9682
4814 6061
4814 6472
4814 6807
4814 8679
4814 9823
4815 4866
4815 5059
4815 6336
4815 8429
4817 5897
4817 7181
4817 8478
4817 9522
4818 5242
4818 5437
4818 6710
4818 7048
4818 7525
4818 8513
4818 9475
4819 6373
4819 7473
4820 6575
4820 6763
4820 8998
4820 9355
4820 9664
4821 4825
4821 9080
4822 5998
4822 6849
4822 7146
4822 9028
4823 5318
4823 6061
4823 9272
4823 9562
4824 5534
4825 5751
4825 5827
4825 6886
4826 4837
4826 5015
4826 5347
4826 5384
4826 5813
4826 8014
4826 8751
4826 8846
4826 8938
4827 5020
4827 5264
4827 5481
4827 5863
4827 6045
4827 6148
4827 7081
4827 8092
4827 8581
4827 9109
4828 6016
4828 6933
4828 8608
4829 6249
4829 6427
4829 7833
4830 6892
4830 7548
4831 5150
4831 8063
4832 4847
4832 4936
4832 6094
4832 6896
4832 7496
4832 7912
4832 8602
4832 8874
4832 9075
4832 9352
4833 5967
4833 6315
4833 6446
4833 6595
4833 6763
4833 7429
4833 8920
4833 9265
4834 5379
4834 5754
4834 5905
4834 7078
4834 7496
4834 8096
4834 8736
4834 9363
4834 6552
4835 5182
4835 5202
4835 7841
4835 8247
4835 9262
4836 5817
4836 6016
4836 7060
4836 7712
4836 9715
4837 5033
4837 8202
4838 6430
4839 5254
4840 7719
4840 7760
4840 7981
4840 8124
4840 9611
4841 6732
4842 5017
4842 5774
4842 5858
4842 6433
4842 7503
4842 7791
4842 7973
4842 8076
4842 9515
4843 5072
4843 7166
4843 7757
4843 7856
4843 8120
4844 5144
4844 5203
4844 5421
4844 6222
4844 7821
4844 8391
4844 9269
4844 9891
4845 6237
4845 7759
4845 9379
4845 9914
4846 5298
4846 8579
4847 5850
4847 6144
4847 7042
4847 8287
4847 8387
4847 8714
4848 5819
4848 6097
4848 6846
4848 7130
4848 7273
4848 7293
4848 7589
4848 8654
4848 9016
4849 5104
4849 5210
4849 6639
4849 6694
4849 8027
4849 8905
4849 9184
4850 5544
4850 5925
4850 6044
4850 6325
4850 6705
4850 6795
4851 5420
4851 5530
4851 5777
4851 7874
4851 8686
4852 5085
4852 5781
4852 6049
4852 6892
4852 7903
4852 8575
4852 8770
4853 5027
4853 6537
4853 6611
4854 5355
4854 6515
4854 8162
4854 8303
4854 8569
4854 9216
4855 4986
4855 4988
4855 6570
4855 7493
4855 8714
4855 9993
4856 4891
4856 8558
4856 8618
4856 9417
4856 9663
4857 5149
4857 5708
4857 6081
4857 6767
4858 5046
4858 6340
4858 7958
4858 8015
4858 9648
4859 4964
4859 6811
4859 7483
4860 5828
4860 8511
4860 9645
4862 5650
4862 6314
4862 8722
4863 5172
4863 6435
4863 8382
4863 8701
4864 5006
4864 5494
4864 6332
4864 6653
4864 9939
4865 4945
4865 4946
4865 7670
4865 7803
4866 4870
4866 5118
4866 6038
4866 7046
4866 8821
4866 9462
4866 9476
4867 6024
4867 6384
4867 8696
4867 9689
4868 5523
4868 6934
4869 9572
4870 4899
4870 5005
4870 5095
4870 5180
4870 5384
4870 5914
4870 6535
4870 7758
4870 8611
4870 9098
4870 9156
4870 9598
4871 4954
4871 5474
4871 7623
4871 9697
4871 9931
4872 6114
4872 8084
4872 8203
4872 9832
4872 9957
4873 5530
4874 5832
4874 5876
4874 6103
4874 7074
4874 7447
4875 5110
4875 5438
4875 7417
4875 9380
4876 5310
4876 9439
4877 5766
4877 9600
4878 4926
4878 5595
4878 5619
4878 7815
4878 9661
4879 6803
4879 7233
4879 9527
4880 5101
4880 7423
4880 7998
4880 8871
4880 9243
4880 9573
4881 5434
4881 5731
4881 6468
4881 6917
4881 8383
4881 8458
4882 5184
4882 5523
4882 6457
4882 6691
4882 8051
4883 5273
4883 8684
4884 5029
4884 8374
4884 8379
4885 7500
4885 8004
4885 8252
4885 8995
4885 9589
4886 5198
4886 5598
4886 9207
4886 9414
4887 6384
4887 6514
4887 6763
4887 7334
4887 7547
4887 8486
4887 8653
4887 9883
4887 9981
4888 5663
4888 5986
4888 6354
4888 6975
4888 7383
4888 9559
4889 6037
4889 6175
4889 6494
4889 8663
4890 9770
4891 6622
4891 6713
4891 8239
4891 8404
4891 8895
4892 5015
4892 6259
4892 7945
4892 9785
4893 5869
4893 5952
4893 6805
4893 7745
4893 8216
4893 9598
4894 5315
4895 6801
4895 8557
4896 6135
4896 6610
4896 7310
4896 7448
4897 8503
4898 6046
4899 4911
4899 4937
4899 6640
4899 6871
4899 8687
4899 9383
4900 4912
4900 5704
4900 6044
4900 6643
4900 7526
4900 9146
4901 5516
4901 5804
4901 7307
4902 5300
4902 7069
4902 7132
4903 6207
4903 6365
4904 5464
4904 5568
4904 6766
4905 7686
4905 7757
4906 4965
4907 5981
4907 6222
4907 6891
4907 7084
4907 7551
4907 7944
4907 9282
4908 4979
4908 5197
4908 7442
4908 7604
4908 7754
4908 8248
4908 9696
4909 5096
4909 5143
4909 6080
4909 6425
4909 7636
4909 8960
4909 9263
4909 9310
4910 5773
4910 9253
4910 9924
4911 5779
4912 6822
4912 6998
4912 7701
4912 8198
4912 8590
4912 9053
4913 5307
4913 5708
4913 6138
4913 6387
4913 7162
4913 8698
4913 9707
4914 7117
4914 7468
4914 7491
4914 7938
4915 5645
4915 7385
4915 8718
4915 9287
4916 5300
4916 5841
4916 6002
4916 6836
4916 6979
4916 8843
4916 9010
4917 5899
4917 6354
4917 9313
4918 5811
4918 7673
4918 7836
4918 7845
4918 8449
4918 9194
4918 9332
4918 9997
4919 4939
4919 5535
4919 5975
4919 6581
4919 7321
4919 7557
4920 4948
4920 5260
4920 5273
4920 5647
4920 7646
4920 8382
4921 5412
4921 5456
4921 6287
4921 9588
4922 5650
4922 6663
4922 7961
4923 7896
4923 7993
4923 8601
4923 8812
4924 6168
4924 6294
4924 6804
4924 7218
4925 5652
4926 5065
4926 5555
4927 5830
4927 7627
4927 8033
4927 9789
4928 7344
4928 7411
4928 7463
4928 9475
4929 4934
4929 6556
4929 7443
4929 9591
4930 6635
4930 7085
4930 8563
4930 8761
4930 9298
4931 5413
4931 6702
4931 7151
4931 7802
4931 9278
4931 9747
4932 5987
4932 6416
4932 6740
4932 6945
4932 9638
4933 8418
4933 9122
4933 9442
4934 8007
4935 6113
4935 6232
4935 7039
4935 8183
4935 9013
4935 9886
4936 6950
4936 6983
4936 7071
4936 7104
4936 7155
4937 5225
4937 5521
4937 7139
4937 7342
4937 7782
4937 8860
4937 9152
4938 5133
4938 5605
4938 8656
4938 5037
4939 6434
4939 8592
4940 5499
4940 6461
4940 6475
4940 6547
4940 6616
4940 7374
4941 5063
4941 5969
4941 6646
4941 7630
4941 8012
4941 8871
4942 5536
4942 9912
4943 5239
4943 6159
4943 6686
4943 8135
4943 8868
4943 9866
4943 9922
4944 6390
4945 9272
4946 5324
4946 5974
4946 7863
4946 9373
4946 9780
4947 5015
4947 7723
4947 9660
4947 6141
4948 5132
4948 6017
4948 6162
4948 6920
4948 7929
4948 8465
4948 9416
4948 9553
4949 6144
4949 9881
4949 8184
4950 8556
4950 9565
4951 4996
4951 7924
4951 8040
4951 8363
4952 5253
4952 5789
4952 9595
4953 9420
4954 5708
4954 8390
4954 8691
4955 5329
4955 6789
4955 7346
4955 8770
4956 7056
4956 7069
4956 7117
4956 8476
4956 9167
4957 6597
4957 8175
4957 8670
4957 9751
4958 5619
4958 8537
4958 8542
4959 5331
4959 6558
4959 6671
4960 6152
4960 8319
4961 5556
4961 5580
4961 7980
4961 8037
4961 8879
4961 9779
4961 8444
4962 5538
4962 5906
4962 6477
4962 7650
4962 8138
4962 9087
4962 9209
4962 9902
4963 5041
4963 5802
4963 6467
4963 6654
4963 6968
4963 7994
4963 8006
4963 8203
4963 8446
4963 8765
4964 5019
4964 5641
4964 6568
4964 7024
4964 8404
4964 8601
4964 8641
4964 9719
4965 6762
4966 5829
4966 6235
4966 6254
4966 8377
4966 8843
4966 9209
4967 5331
4967 6456
4968 5154
4968 8310
4969 5676
4969 5862
4970 5135
4970 5886
4970 7688
4970 8071
4970 9506
4971 5106
4971 5109
4971 5293
4971 5541
4971 6287
4971 7247
4971 7676
4971 7813
4971 8261
4972 5684
4972 5812
4972 5818
4972 7098
4972 7554
4972 8864
4972 9271
4973 6104
4973 6161
4973 6485
4973 7174
4973 7879
4973 9428
4974 6387
4974 7538
4974 8365
4974 8470
4975 5577
4975 6787
4975 7398
4975 9366
4975 7962
4976 5255
4976 5277
4976 6385
4976 6386
4976 9746
4977 5920
4978 6578
4978 7891
4978 8658
4979 6897
4979 9300
4980 5043
4980 5788
4980 6214
4980 6730
4980 7996
4981 5603
4981 5779
4981 6396
4981 9471
4982 6006
4982 6999
4982 7895
4983 5360
4983 6014
4984 5140
4984 5218
4984 7891
4984 8150
4984 8263
4985 5512
4985 5568
4985 5671
4985 7006
4985 7418
4985 7793
4985 8237
4986 5931
4986 6758
4986 7275
4986 7864
4986 9930
4987 5408
4987 5635
4987 6859
4987 7129
4987 7347
4987 7370
4987 7516
4987 7640
4987 7681
4987 8693
4987 9028
4988 5313
4988 5546
4988 5559
4988 6051
4988 6449
4988 6847
4988 7630
4988 8118
4988 8996
4988 9060
4988 9270
4988 9541
4989 8191
4989 9673
4990 6391
4990 8860
4990 9733
4991 6636
4991 8314
4992 8390
4992 8828
4992 9193
4993 8251
4994 5033
4994 5356
4994 5507
4994 7639
4994 8764
4994 9493
4994 9966
4995 5223
4995 5343
4995 5482
4995 6963
4995 7724
4995 9606
4996 5831
4996 6678
4997 5217
4997 5497
4997 7484
4997 7834
4997 7897
4997 8640
4997 8696
4997 9033
4997 9505
4998 5132
4998 5594
4998 5628
4998 6236
4998 7182
4998 7425
4998 7757
4998 7903
4999 6233
4999 8447
4999 9983
5000 8530
5001 6185
5001 7513
5001 9049
5001 9512
5002 5797
5003 6097
5003 6897
5003 7287
5004 5151
5004 9308
5005 5062
5005 5126
5005 5269
5005 5833
5005 6114
5005 6659
5005 7382
5005 7749
5005 8120
5005 9029
5005 9809
5006 5105
5006 6036
5006 6175
5006 7043
5006 7129
5006 8362
5006 8377
5006 9939
5007 6549
5007 8843
5008 5021
5008 5416
5008 5596
5008 6396
5008 7317
5008 7939
5008 8431
5009 5052
5009 5468
5009 6197
5009 6686
5009 8281
5009 8566
5010 5750
5010 6704
5010 7260
5010 8993
5011 5030
5011 7037
5011 8030
5011 9027
5012 8892
5013 9360
5013 5755
5014 7093
5014 7262
5014 9142
5014 9167
5015 5787
5015 5898
5015 5990
5015 7423
5016 5391
5016 5863
5016 6324
5016 6439
5016 8459
5016 8565
5016 8763
5016 9306
5017 5170
5017 5661
5017 7058
5017 8134
5017 9466
5018 6921
5018 9549
5021 5498
5021 5626
5021 5781
5021 6077
5021 7623
5021 8675
5022 6733
5022 9789
5023 6913
5023 9743
5025 6001
5026 7358
5026 9407
5027 5599
5027 5889
5027 6051
5027 7330
5027 8126
5028 7653
5028 7704
5028 9020
5029 5138
5029 6092
5029 7031
5030 5161
5030 6879
5030 9492
5030 9773
5031 5214
5031 6937
5031 7322
5031 7952
5031 8220
5031 8916
5032 6053
5032 6919
5032 7101
5032 7131
5032 9131
5033 5736
5033 6499
5033 7011
5033 7520
5033 7546
5033 8715
5033 8871
5034 6724
5034 8877
5035 5801
5035 7952
5035 9362
5036 5433
5036 6945
5036 8083
5037 6190
5037 6628
5037 7583
5037 9912
5038 6837
5038 8402
5038 9197
5039 6345
5039 6583
5040 5858
5040 6017
5040 6702
5040 7689
5040 7807
5040 9642
5041 5193
5041 6620
5041 7585
5041 7711
5041 8547
5041 9529
5042 5337
5042 5717
5042 6632
5042 6934
5043 6362
5043 7542
5043 7953
5043 9083
5044 5831
5044 6142
5044 8292
5044 9060
5045 5903
5045 7814
5045 8302
5045 9973
5046 5361
5046 5594
5046 5875
5046 6325
5046 6601
5046 8497
5047 5477
5047 6490
5047 6692
5047 8861
5048 5783
5048 7144
5048 7825
5048 7984
5049 5445
5049 5793
5049 7347
5049 8579
5050 5877
5050 6266
5050 6641
5050 7395
5050 7686
5050 7816
5050 8665
5050 8855
5050 9534
5050 9677
5050 9784
5051 6172
5051 6194
5051 7958
5052 6674
5052 6965
5052 9264
5053 6465
5053 6559
5053 6909
5053 6930
5053 7089
5053 7149
5053 8829
5053 8968
5053 9437
5053 9797
5053 9849
5054 5478
5054 6631
5054 6828
5054 7674
5054 7800
5054 8620
5054 9728
5054 9794
5054 9949
5054 9983
5055 7696
5055 7837
5055 8557
5055 8642
5055 8708
5055 9144
5055 9176
5056 7073
5056 9938
5058 5317
5058 6524
5058 8606
5058 8681
5058 8879
5059 6742
5059 8016
5059 8328
5059 9284
5060 8391
5061 5089
5061 5091
5061 7219
5061 7502
5061 8722
5061 9102
5061 9862
5062 6279
5062 6513
5062 6714
5062 7685
5062 7747
5062 8894
5063 5458
5063 5566
5063 6043
5063 6142
5063 7572
5063 7786
5063 9542
5064 5532
5064 5769
5064 5785
5064 6645
5064 7877
5064 8167
5064 8991
5065 5976
5065 6009
5065 6028
5065 6964
5065 8589
5065 8723
5066 5548
5066 5749
5066 6390
5066 8158
5066 9117
5067 5141
5067 5843
5067 6812
5067 8816
5067 9122
5067 9269
5067 9842
5068 6624
5068 9491
5069 5402
5069 6123
5070 5436
5070 7062
5070 7284
5070 7339
5070 7938
5071 7110
5071 7242
5071 7795
5071 7964
5071 8522
5071 9123
5071 9365
5072 6191
5072 6454
5072 7798
5072 8360
5072 8449
5073 5219
5073 8588
5073 8968
5074 6907
5074 7141
5074 7753
5074 8707
5074 8836
5076 6712
5077 5318
5077 7671
5077 7696
5077 7759
5078 7116
5078 8176
5078 8207
5079 5428
5079 5862
5080 5411
5080 6374
5080 8032
5081 5915
5081 6336
5081 8099
5081 9971
5082 5267
5082 5454
5082 6974
5082 7421
5082 7756
5082 8517
5082 9547
5083 5319
5083 6944
5083 9214
5084 5863
5084 7636
5085 6105
5085 8186
5086 5242
5086 5344
5086 5366
5086 5781
5086 5944
5086 7061
5086 7539
5086 9009
5087 5339
5087 5363
5087 5432
5087 5716
5087 6049
5087 6111
5087 6206
5087 7324
5087 8614
5087 9094
5087 9339
5087 9814
5088 6306
5088 6716
5088 7295
5088 8021
5088 8890
5088 9348
5089 6901
5089 8529
5089 9623
5089 9737
5090 6431
5090 7351
5090 9163
5090 9431
5091 5540
5091 7011
5091 8231
5091 8232
5091 8714
5091 9582
5092 5275
5092 5962
5092 6715
5092 7677
5092 8474
5092 8999
5093 5424
5093 5944
5093 6364
5093 6683
5094 5213
5094 5890
5094 6102
5094 7241
5094 7553
5094 8419
5094 8709
5094 9010
5095 5484
5095 9597
5096 5167
5096 6780
5096 7940
5096 9517
5096 9646
5097 7048
5097 7599
5098 7898
5099 5545
5099 5814
5099 7722
5099 9465
5100 6625
5100 7378
5100 7559
5101 9439
5101 9623
5102 5676
5102 8388
5103 7650
5103 8067
5103 8209
5103 9652
5103 9946
5104 6543
5104 8149
5105 6872
5105 7299
5105 8443
5106 5493
5106 5750
5106 5756
5106 6139
5106 6418
5106 6964
5106 7008
5106 7025
5106 7215
5106 8190
5106 8413
5106 8953
5106 9176
5106 9719
5107 5245
5107 5291
5107 6944
5107 7045
5108 5264
5108 6494
5108 8037
5108 8431
5108 9672
5109 8553
5110 6770
5110 7506
5110 9302
5110 9403
5111 5653
5111 6073
5111 6487
5111 6946
5111 7339
5111 8910
5111 8950
5111 9922
5112 5910
5112 7868
5112 8169
5112 9596
5113 6163
5113 7245
5113 7916
5113 8376
5114 5630
5114 6936
5114 7119
5114 8823
5114 8895
5115 5180
5115 6186
5115 6779
5115 8160
5115 8391
5117 5495
5118 5563
5118 6182
5118 6953
5118 8416
5118 8506
5118 8592
5118 9692
5119 6622
5119 6632
5119 7451
5119 8822
5120 5926
5120 7618
5120 7701
5120 8818
5121 5561
5121 7142
5121 7193
5121 8660
5121 8756
5121 9159
5122 5644
5122 9691
5123 6241
5123 6526
5123 7370
5123 8128
5123 8645
5123 9309
5123 9357
5123 9501
5123 9549
5124 5290
5124 7002
5124 9255
5126 5922
5126 6022
5126 6950
5126 7164
5126 7680
5126 9807
5127 5248
5127 6321
5128 5358
5128 5691
5128 8290
5128 8331
5128 9242
5128 9293
5128 9367
5129 5980
5130 5564
5130 5719
5130 5885
5130 6424
5130 9442
5131 7446
5131 7451
5131 9501
5132 5726
5132 8541
5133 6183
5133 6487
5133 6962
5133 9144
5133 9857
5134 6414
5134 7822
5134 8951
5135 6083
5135 6355
5135 8670
5135 9578
5136 5785
5136 7533
5137 7203
5137 8048
5138 5502
5138 5787
5138 6134
5138 9283
5139 5841
5139 6210
5139 7440
5139 9048
5139 9225
5139 9315
5139 9923
5140 7268
5141 6504
5141 6698
5141 7927
5141 7996
5141 8886
5141 9320
5141 9496
5142 5405
5142 5925
5142 8288
5142 9419
5143 5611
5143 7320
5143 8316
5144 6786
5144 7201
5144 7658
5144 8348
5144 9615
5145 6346
5145 7219
5145 9151
5146 5959
5146 8852
5147 6232
5147 6871
5147 7478
5147 9316
5148 6132
5148 7687
5148 8018
5148 9337
5148 9502
5149 5237
5149 8707
5149 8999
5150 5940
5150 9882
5151 5348
5151 5421
5151 5603
5151 6118
5151 7369
5151 8298
5151 9059
5152 5934
5152 7005
5152 7187
5152 9575
5153 5164
5153 6141
5153 6981
5153 9313
5153 9522
5154 6803
5155 5204
5155 5316
5155 5606
5155 5798
5155 6214
5155 7820
5155 8754
5155 9912
5156 5169
5156 5716
5156 7205
5156 9668
5157 7113
5157 7635
5157 9854
5158 5298
5158 5763
5158 6229
5158 7095
5158 8326
5158 8438
5158 9990
5159 6339
5159 8453
5160 5905
5160 6048
5160 7448
5160 7938
5160 8147
5160 9011
5160 9073
5160 9777
5161 7734
5161 7797
5161 8040
5161 8125
5161 9074
5162 5233
5162 6318
5162 7348
5162 7885
5162 9907
5163 5516
5163 6026
5163 6946
5164 5385
5164 5572
5164 7372
5164 7662
5164 8125
5164 8137
5164 9173
5165 5175
5165 5276
5165 6459
5165 8548
5165 9943
5166 7621
5166 9117
5166 9616
5166 9973
5167 8516
5168 5676
5168 6684
5168 7691
5169 8327
5169 9448
5170 5729
5170 8145
5171 7335
5171 7866
5172 6035
5172 6432
5172 6603
5172 7414
5172 7427
5173 5245
5173 9391
5173 9822
5174 5680
5174 6838
5174 9424
5174 9903
5175 5394
5175 6322
5175 7986
5176 9588
5177 8560
5178 8874
5178 9275
5179 8205
5180 8716
5181 6002
5181 6737
5181 6956
5181 7876
5181 9958
5182 7363
5182 7689
5182 7993
5182 9074
5182 9488
5182 9943
5183 5698
5183 5965
5183 6366
5183 6464
5183 6804
5183 6810
5183 8823
5183 9801
5184 5197
5184 5509
5184 5873
5184 8062
5184 9890
5185 5357
5186 5838
5186 7566
5186 8141
5186 8767
5186 9201
5187 5331
5187 6178
5187 6302
5187 6371
5187 6953
5187 8876
5188 5996
5188 6118
5188 7390
5188 9053
5189 5265
5189 7256
5190 5483
5190 7656
5190 8071
5190 8211
5190 8903
5190 9627
5190 9773
5191 5704
5191 5786
5191 6398
5192 8614
5192 9451
5192 9534
5192 9604
5192 9693
5193 5301
5194 5446
5194 5652
5194 5753
5194 6344
5194 6700
5194 9263
5194 9303
5195 9114
5195 9280
5196 6098
5196 7651
5196 9574
5197 5530
5197 5864
5197 6135
5197 6236
5197 6703
5197 6964
5197 7531
5197 7905
5197 8156
5197 9196
5198 5633
5198 8831
5199 8651
5200 6107
5200 8100
5200 8150
5200 9564
5201 5355
5201 5658
5201 7276
5201 7857
5201 9113
5202 6096
5202 7622
5203 7343
5203 9544
5204 5211
5204 5372
5204 6368
5204 6534
5204 7521
5204 7725
5204 8353
5204 8388
5204 8389
5204 9861
5205 5676
5205 6263
5205 6755
5205 9336
5206 5455
5206 6436
5206 8245
5206 9782
5207 5807
5207 6524
5207 7037
5207 7198
5207 7613
5208 6461
5208 7218
5208 9138
5208 9878
5209 5463
5209 6677
5210 5231
5210 5558
5210 6973
5210 6975
5210 6993
5210 7580
5211 6905
5212 9458
5213 6701
5213 7083
5213 7986
5214 5440
5214 6357
5214 6676
5214 7447
5215 5705
5215 7069
5216 7679
5216 7862
5216 8901
5216 9475
5217 5806
5217 6173
5217 6512
5217 7303
5217 8146
5217 8932
5218 6364
5218 6737
5218 8897
5218 9543
5219 8126
5219 8940
5220 5338
5220 5428
5220 5780
5220 7149
5220 7414
5221 7095
5222 5591
5222 6168
5222 6741
5222 7593
5222 8252
5223 5314
5223 5752
5223 6991
5223 9468
5224 6885
5224 6976
5224 7803
5224 9231
5224 6079
5225 8869
5225 9345
5226 5857
5226 6046
5226 7462
5226 7554
5226 9058
5226 9909
5227 5475
5227 6146
5227 6387
5227 8485
5228 5503
5228 6635
5228 6852
5228 9549
5229 5233
5229 6653
5229 7943
5229 8406
5230 5795
5230 6911
5230 8166
5230 8491
5231 5334
5231 6550
5231 7438
5232 8436
5233 6771
5233 8713
5234 6420
5234 8721
5234 9121
5235 7545
5235 7745
5236 7539
5236 9030
5236 9130
5237 5530
5237 8295
5237 9459
5238 5744
5238 7191
5238 9103
5239 8602
5239 9578
5240 7171
5240 8170
5240 8971
5240 9475
5241 5378
5241 5878
5241 7644
5242 5637
5242 7006
5242 8176
5243 8052
5243 8604
5243 9625
5244 5554
5244 7614
5245 5284
5245 6691
5245 9619
5247 7093
5248 5405
5248 5753
5248 6190
5248 9730
5249 8872
5249 8919
5249 8985
5249 9083
5251 5969
5251 6016
5251 7221
5251 8845
5251 9046
5251 9942
5252 5549
5252 6111
5252 6500
5252 7105
5253 7414
5253 7532
5253 7673
5253 9841
5254 7261
5255 6421
5255 6781
5255 6968
5255 8107
5255 8849
5255 9347
5255 9705
5255 9740
5256 6694
5257 5328
5257 5869
5257 6069
5257 6478
5257 7596
5257 9189
5257 9687
5258 9479
5259 5545
5259 5565
5259 9772
5260 7228
5260 9578
5261 5270
5261 5620
5261 7314
5261 7846
5261 9557
5261 9657
5261 9850
5262 5764
5262 5840
5262 9101
5263 7266
5263 8548
5264 7540
5264 9630
5265 5721
5265 6293
5265 8180
5265 9798
5266 5896
5266 6488
5266 9800
5266 9855
5268 5600
5268 6522
5269 8816
5269 9322
5270 6709
5270 8165
5270 8352
5270 8675
5271 5756
5271 5820
5271 6007
5271 6045
5271 7733
5271 8529
5271 9056
5271 9088
5271 9149
5271 9969
5273 6343
5273 6459
5274 5505
5274 8033
5274 8488
5274 8683
5274 9693
5275 5398
5275 5886
5275 6230
5275 6626
5276 6875
5276 7333
5276 8265
5276 8548
5276 9385
5277 6275
5277 8057
5277 9253
5278 7551
5279 5711
5279 6257
5279 8947
5279 9233
5280 7817
5280 7935
5280 9120
5281 5409
5281 5921
5281 8416
5282 5730
5282 6463
5282 6513
5282 8225
5282 6484
5283 5983
5283 6226
5283 6500
5283 9990
5284 7183
5285 5892
5285 5937
5286 5324
5286 5964
5286 6877
5286 8147
5286 8918
5286 9603
5287 6762
5287 8043
5287 9215
5287 9377
5287 9890
5288 5427
5288 5813
5288 7565
5288 8681
5289 6066
5289 7034
5289 8847
5289 9194
5289 9256
5289 9420
5290 5642
5290 7033
5290 7622
5290 7748
5290 9139
5290 9417
5291 6781
5291 7049
5291 7490
5291 9303
5292 5778
5292 7548
5292 7984
5292 8077
5292 8913
5292 9650
5292 9734
5293 8533
5293 8801
5294 6449
5294 9214
5295 6376
5296 8103
5297 6813
5297 6992
5297 7554
5298 8457
5298 9998
5299 5505
5299 6180
5299 6346
5299 6619
5299 6641
5299 7325
5299 7530
5300 5819
5300 6000
5300 9730
5301 6948
5302 6484
5302 7229
5302 8070
5303 6711
5303 6774
5303 6821
5303 7595
5303 7627
5303 9287
5303 9306
5304 6912
5304 6976
5304 7747
5304 7852
5305 6595
5305 6747
5305 7099
5305 9155
5305 9267
5306 6324
5307 5317
5307 5661
5307 6071
5307 7368
5307 7444
5307 7622
5307 8664
5308 6391
5308 8651
5308 8699
5308 9429
5308 9747
5309 7077
5309 7314
5309 9999
5310 5937
5311 5331
5312 5755
5312 7460
5312 7798
5312 9215
5313 5630
5313 7325
5313 9129
5314 7990
5315 5923
5315 8647
5316 7042
5316 8652
5317 5666
5317 5749
5317 8348
5317 9801
5318 6441
5318 6679
5318 7750
5318 8854
5319 5502
5319 6876
5319 8162
5319 8321
5319 9264
5319 9797
5320 5645
5321 6992
5321 8834
5322 5644
5322 7569
5322 9558
5322 9724
5323 5765
5323 5771
5323 8598
5323 9130
5324 5976
5324 6030
5324 7007
5324 8217
5325 5500
5326 5853
5326 9697
5327 5610
5327 7060
5328 6100
5328 6406
5328 7912
5328 8000
5330 5573
5330 5632
5330 6539
5330 7385
5330 7915
5330 7968
5330 8953
5330 9091
5330 9871
5331 5697
5331 8581
5331 9533
5332 5621
5332 8546
5333 7092
5333 8898
5333 9150
5334 6034
5335 6900
5335 7220
5336 7742
5336 8606
5336 8669
5337 5360
5337 7820
5337 7981
5337 8168
5337 9757
5338 5500
5338 7942
5338 8092
5338 9097
5338 9300
5338 9308
5338 9474
5339 5989
5339 9374
5340 6040
5341 7235
5341 8339
5341 8696
5341 8823
5341 9596
5342 5842
5342 6080
5342 8263
5342 8436
5342 9840
5344 6743
5344 8025
5344 8531
5344 9161
5345 5765
5345 7411
5345 7961
5345 9005
5345 9436
5345 9608
5346 6266
5346 8483
5346 9573
5347 5750
5347 6565
5347 7077
5347 7354
5347 7860
5347 9174
5347 9769
5348 6825
5348 6828
5349 5600
5349 6424
5349 7286
5349 8066
5349 9208
5350 8104
5350 8328
5351 7211
5351 8085
5351 8384
5351 8694
5351 9121
5352 7567
5352 7607
5352 7742
5353 7091
5353 7680
5354 8519
5354 8727
5355 5866
5355 6008
5355 6361
5355 6854
5355 7513
5355 8028
5355 8854
5355 9878
5355 9917
5356 9675
5357 7738
5357 8037
5357 9474
5357 9924
5358 7056
5358 8863
5359 5685
5359 5862
5359 6948
5359 8952
5360 7380
5360 7592
5360 7876
5361 5623
5361 8302
5361 8783
5362 6799
5362 6875
5363 5714
5363 6926
5363 7728
5364 7663
5364 8590
5364 8854
5365 7290
5366 7863
5367 6390
5367 6547
5367 7212
5367 8645
5367 8653
5367 9191
5367 9325
5368 6705
5368 6780
5369 5835
5369 6288
5369 6518
5369 9744
5370 5932
5370 6152
5370 8081
5370 8210
5370 9416
5371 7332
5371 7652
5371 9500
5372 5951
5372 6216
5372 6400
5372 6874
5372 7269
5372 8254
5373 6169
5373 6183
5373 6581
5373 7190
5373 7554
5373 8047
5373 9145
5373 9602
5374 5839
5374 6863
5374 6955
5374 7592
5374 8673
5374 8852
5375 6045
5375 6926
5375 7540
5376 6271
5376 7862
5376 8681
5376 8846
5376 8998
5377 7206
5377 8282
5377 9452
5378 6093
5378 8662
5379 5891
5380 6713
5380 8455
5380 9927
5380 9940
5381 8318
5381 8982
5381 9893
5381 9991
5382 6948
5382 9562
5382 9984
5383 5942
5383 5966
5383 7524
5383 7959
5384 6197
5384 6245
5384 6260
5384 8617
5384 8830
5385 8967
5386 6924
5386 8501
5386 9200
5387 6149
5387 8594
5389 9029
5389 9425
5389 9751
5390 8583
5390 8743
5391 8421
5391 8640
5391 9852
5392 5409
5392 6884
5392 7092
5392 7359
5392 8549
5393 5911
5393 6050
5393 9439
5393 9717
5394 5458
5394 5977
5394 7364
5394 7781
5395 7619
5395 7775
5395 9097
5395 9217
5395 9658
5395 9822
5396 5404
5396 5701
5396 5988
5396 7180
5396 7449
5396 8186
5397 5775
5397 6965
5397 7849
5398 5409
5398 7692
5398 9098
5399 6795
5399 8158
5399 8185
5400 5805
5400 7160
5401 6931
5401 7410
5401 8193
5401 8231
5401 9547
5401 9805
5402 6218
5402 7072
5402 9889
5403 6719
5403 9258
5403 9531
5404 7545
5404 8298
5404 9076
5405 6509
5406 6613
5406 7037
5406 8458
5406 8791
5406 8977
5406 9593
5406 9745
5407 6341
5407 6541
5407 9082
5408 7796
5409 8582
5410 8481
5411 6650
5411 8139
5411 8826
5411 8987
5412 9329
5414 5810
5414 6508
5414 8705
5414 8934
5414 9270
5415 5652
5415 8573
5416 9054
5417 7020
5418 6336
5418 7697
5418 7774
5418 9871
5419 6643
5419 6850
5419 7885
5419 8998
5420 5576
5420 5997
5420 6078
5420 6290
5420 8878
5420 9229
5421 6040
5421 6337
5421 7762
5421 8156
5421 8438
5421 9206
5421 9277
5421 9788
5422 5808
5423 5886
5423 6166
5423 6687
5423 7668
5423 8050
5423 8232
5424 7349
5424 7739
5424 9590
5425 5772
5426 6500
5426 7199
5426 8557
5426 9480
5427 6217
5427 6219
5427 6251
5428 5510
5428 6370
5428 6725
5428 6905
5428 7104
5428 7798
5429 6389
5430 7475
5430 8615
5430 9222
5430 9812
5430 9846
5431 7445
5431 9069
5433 5894
5433 7450
5433 7584
5433 7812
5435 6427
5435 6728
5435 9781
5436 5462
5436 5711
5436 6518
5437 5624
5437 5928
5437 6171
5437 6672
5437 7514
5438 5864
5438 7027
5438 7328
5438 7993
5438 9132
5439 7551
5440 5470
5440 5474
5440 6099
5440 6878
5441 6929
5442 5766
5442 6179
5442 6505
5442 8572
5443 6895
5443 8219
5443 8474
5444 6384
5444 6883
5444 7384
5444 8302
5445 5540
5445 5778
5445 6110
5445 7173
5445 8131
5445 8976
5446 6996
5446 7958
5446 8092
5446 8559
5446 9266
5447 5888
5448 5500
5448 7175
5448 8055
5448 9988
5449 6669
5449 6817
5449 7092
5449 7320
5449 7472
5449 8334
5449 8719
5449 8976
5450 8261
5450 8544
5450 8744
5451 5594
5451 5799
5451 8405
5451 9332
5451 9879
5451 9885
5452 7781
5453 6665
5453 7262
5453 7666
5453 8274
5453 8581
5453 8858
5453 8978
5454 6590
5454 6675
5454 7007
5454 7146
5454 8270
5455 6171
5455 7527
5455 7852
5455 8477
5455 8955
5456 5548
5456 8130
5456 8352
5456 9215
5457 6462
5457 8369
5458 5725
5458 6674
5458 6894
5458 7567
5458 8032
5458 9755
5459 6730
5460 5826
5460 5918
5460 6322
5460 6581
5460 7305
5460 9547
5462 6389
5462 8949
5462 9032
5463 5485
5463 7503
5463 7753
5463 7873
5463 8066
5464 6054
5464 6216
5464 6651
5464 8125
5464 8674
5464 9133
5465 6267
5465 6587
5465 7732
5465 9262
5466 5563
5466 5696
5466 6548
5466 6733
5466 7509
5466 7786
5466 7989
5466 9022
5467 5691
5467 6489
5467 7148
5467 9737
5469 5483
5469 5895
5469 6810
5469 7476
5470 6425
5471 6007
5471 8147
5471 9351
5471 9970
5472 5585
5472 6117
5473 6812
5473 9415
5473 9809
5473 9882
5474 8988
5474 9102
5475 5700
5475 5881
5475 7868
5476 6596
5476 8505
5477 5691
5477 5795
5478 5661
5478 6675
5479 5853
5479 5989
5479 6085
5479 7943
5479 8784
5479 9352
5479 9688
5480 9342
5480 9910
5480 9916
5481 5587
5481 7386
5481 8332
5481 8625
5481 9029
5482 5521
5482 6566
5482 6862
5482 7085
5482 7806
5482 8749
5482 9029
5482 9183
5482 9653
5483 5512
5483 7188
5483 7753
5483 8850
5483 9537
5484 8895
5484 9461
5485 5540
5485 7677
5485 7680
5485 8839
5485 9490
5485 9505
5485 9816
5486 5779
5486 6240
5486 6551
5486 7529
5486 7576
5486 7625
5488 9059
5488 9339
5489 6014
5489 8472
5489 9453
5489 9580
5490 7337
5490 7785
5490 9061
5492 9890
5493 5622
5493 5822
5494 6595
5494 7167
5494 8903
5496 5967
5496 5999
5496 6974
5496 7158
5496 9332
5496 9794
5497 6084
5497 7438
5497 7975
5497 9773
5498 5733
5498 5749
5498 8138
5498 8454
5498 9844
5499 5937
5500 7303
5500 7477
5500 8594
5500 9310
5500 9562
5500 9943
5501 8198
5501 9038
5501 9088
5502 5710
5502 6005
5504 7591
5504 8479
5504 8529
5504 9049
5504 9764
5505 7300
5505 7795
5505 9112
5506 6000
5506 6975
5506 7637
5506 8151
5506 8553
5506 8728
5506 9329
5507 5576
5507 6203
5507 6377
5507 9008
5507 9192
5508 7168
5508 8052
5508 8424
5508 9347
5509 5629
5509 6953
5509 8435
5509 8635
5509 9351
5509 9592
5509 9624
5510 7666
5510 9457
5511 6021
5511 6755
5511 7581
5511 7847
5511 8540
5511 9069
5511 9974
5512 8255
5512 8610
5513 6849
5513 7247
5514 5971
5514 6066
5514 6859
5514 6963
5514 8595
5514 9005
5514 9529
5514 9644
5515 6524
5515 6760
5515 8265
5515 9516
5515 7425
5516 5927
5516 9298
5516 9634
5517 5563
5518 9305
5519 5621
5519 6200
5519 6703
5519 6960
5520 5997
5520 6983
5520 8021
5520 9586
5521 6307
5521 7068
5522 5737
5522 7461
5522 7509
5522 8540
5523 6050
5523 8791
5525 5926
5525 6847
5525 9642
5527 5766
5527 6680
5527 6718
5527 7285
5527 7468
5527 8319
5528 6211
5528 6800
5528 6956
5528 8065
5528 8259
5530 6051
5530 8383
5530 8413
5531 9638
5531 9699
5532 5840
5532 7972
5533 8456
5534 7167
5534 9145
5535 6732
5535 6766
5535 9053
5535 9268
5536 6055
5536 7185
5536 8026
5537 6206
5537 8683
5538 6733
5538 7425
5538 7567
5539 6767
5539 9035
5539 9635
5540 7420
5540 8459
5540 9009
5540 9747
5540 9898
5541 8985
5542 6112
5542 6381
5542 7669
5543 8763
5544 6277
5544 7829
5544 7916
5544 8936
5544 9168
5545 9674
5546 5878
5546 7606
5546 7627
5546 7838
5546 8127
5546 8591
5546 8810
5546 9516
5547 6335
5547 6385
5547 6555
5547 7051
5547 7084
5547 7841
5547 8673
5547 9251
5547 9597
5548 6007
5548 6808
5549 5604
5549 6087
5549 6289
5549 8352
5549 9296
5550 6866
5550 7444
5550 8928
5550 9481
5551 5765
5552 8193
5552 9267
5553 5968
5553 8494
5553 8623
5553 9262
5553 9578
5554 6075
5554 7142
5554 8228
5555 6584
5555 7614
5555 8129
5555 8842
5555 9697
5556 8935
5557 5799
5557 6573
5557 8581
5558 8125
5558 9624
5559 5780
5559 6854
5559 8779
5559 9032
5560 5715
5560 5905
5560 6147
5560 6950
5560 9953
5561 5957
5561 6914
5561 7399
5561 8229
5562 5579
5562 6196
5562 6573
5562 6761
5563 6068
5563 7192
5563 7657
5563 7927
5563 7996
5563 9635
5563 9855
5564 7471
5564 8045
5564 8364
5564 8646
5564 9429
5564 9838
5565 6006
5565 6723
5566 6732
5566 6767
5566 8060
5567 7364
5567 8466
5568 6756
5568 7425
5568 8325
5568 9700
5568 9938
5569 6745
5569 7145
5569 8418
5569 9469
5570 5872
5570 5950
5570 6881
5570 7115
5571 5836
5571 7073
5571 7324
5572 7660
5572 8627
5572 9000
5573 5945
5573 6178
5573 6778
5573 9095
5574 5791
5574 8672
5575 9365
5575 9703
5576 6582
5576 7035
5576 7904
5577 7991
5577 9964
5578 7614
5579 5725
5579 6310
5579 6559
5579 6857
5579 7629
5580 5766
5580 8132
5581 5631
5581 6533
5582 6052
5582 6122
5582 6279
5582 7650
5582 8451
5582 9152
5583 6268
5583 7222
5583 8688
5583 9611
5583 9888
5584 6332
5584 6518
5584 6665
5584 8101
5585 5923
5585 7634
5586 6834
5586 7732
5586 7831
5586 9822
5587 6658
5587 6819
5587 8313
5588 5909
5588 6352
5588 7363
5588 7814
5588 8098
5588 8271
5588 9005
5588 9501
5589 6136
5589 7007
5589 7993
5589 8168
5589 8480
5590 6438
5590 6854
5590 7329
5590 7724
5590 7905
5590 8419
5591 6230
5591 6688
5591 7320
5591 7324
5591 7822
5591 8018
5591 9876
5592 6831
5593 8202
5593 9904
5594 7134
5594 7908
5594 8584
5595 7014
5595 9613
5596 6621
5596 6672
5596 8288
5596 8561
5597 5726
5597 6792
5597 6838
5598 5954
5598 7135
5598 7552
5598 8340
5598 8747
5598 9366
5600 5833
5600 6713
5600 7307
5600 8195
5600 8991
5600 9586
5600 9782
5601 5703
5601 6846
5602 7267
5602 8216
5603 6634
5603 6712
5603 6805
5603 7835
5603 8500
5603 8635
5605 7421
5606 7004
5606 7096
5606 8562
5607 6026
5607 6190
5608 6639
5608 9644
5609 5985
5609 6463
5609 6892
5609 6995
5609 7297
5609 7947
5609 9918
5611 6648
5611 8809
5611 9076
5611 9145
5612 5719
5612 6243
5612 7036
5612 7940
5612 8794
5612 8809
5612 9229
5612 9853
5613 6706
5613 8308
5613 9214
5614 6221
5614 7104
5614 8960
5614 9587
5615 5798
5615 6203
5615 6712
5615 6816
5615 7457
5615 7547
5616 5955
5616 8482
5617 6927
5617 8419
5617 8551
5618 6224
5618 8502
5619 7953
5619 8214
5620 7737
5620 9424
5620 9607
5621 5630
5621 6009
5621 6465
5621 6854
5621 7702
5622 8133
5624 6952
5624 7683
5624 8373
5625 7936
5625 8251
5625 9966
5626 8006
5626 8464
5627 5801
5627 5933
5627 6088
5627 6135
5627 6309
5627 8383
5627 8554
5627 8907
5627 9959
5628 5821
5628 8567
5628 9864
5629 6217
5629 6697
5629 6783
5630 6087
5630 6192
5630 6730
5630 7737
5630 8632
5630 8833
5630 9084
5630 9638
5631 6440
5632 7185
5632 8882
5632 8987
5632 9139
5632 9529
5632 9961
5633 6820
5633 7296
5633 7677
5633 9722
5634 5921
5634 8665
5635 6259
5635 8385
5635 9007
5635 9946
5636 5702
5636 6787
5636 8118
5636 8429
5636 9264
5636 9684
5636 9687
5636 9843
5637 5906
5637 8410
5637 8877
5637 9939
5638 7527
5638 9013
5639 6034
5639 6870
5639 7215
5639 7353
5639 8196
5640 6609
5640 7034
5640 8968
5641 7121
5642 5649
5642 9301
5642 7401
5643 6120
5643 6295
5643 6479
5643 7488
5643 7768
5643 7888
5644 5680
5644 5688
5645 6057
5645 6967
5645 8552
5645 8737
5645 9097
5645 9435
5646 9934
5648 6017
5648 6431
5648 6777
5648 7651
5648 7693
5648 9787
5649 7234
5651 7496
5651 9127
5651 9323
5651 9530
5651 9773
5652 9343
5653 8521
5653 8827
5653 9096
5653 9709
5654 8709
5655 5711
5655 6393
5656 7701
5656 8174
5656 8269
5656 8999
5656 9533
5657 6028
5657 9608
5658 6823
5659 6719
5659 7303
5659 8136
5659 9225
5660 5898
5660 6642
5660 6692
5660 6957
5660 7378
5660 7536
5660 7704
5661 7127
5661 7739
5661 8019
5662 7037
5663 7111
5663 8397
5664 6399
5664 9623
5665 5903
5665 9359
5665 9937
5666 7978
5666 8441
5666 8529
5666 9897
5667 6930
5667 7215
5667 9485
5668 6102
5669 6220
5669 6320
5669 8104
5669 8577
5669 8689
5669 8810
5669 9244
5670 6235
5670 6686
5670 8431
5671 8416
5671 9216
5672 5759
5672 5929
5672 9037
5672 9292
5673 6229
5673 6897
5673 7695
5673 8984
5674 5890
5674 7223
5675 6044
5675 7664
5675 8043
5675 9483
5676 6896
5677 6667
5678 6023
5678 6075
5678 6630
5678 6887
5678 7844
5678 8140
5679 6859
5679 7930
5679 9295
5680 5904
5680 6659
5680 6961
5680 7458
5680 9060
5680 9801
5681 6127
5681 6597
5681 9084
5682 5841
5682 6189
5682 7112
5682 7843
5684 7861
5684 9318
5685 5960
5685 8337
5685 8420
5687 9192
5687 9282
5687 9929
5688 6510
5688 6571
5688 6881
5688 7956
5688 8314
5688 8485
5689 5703
5689 5926
5689 5979
5689 7559
5689 8227
5689 8936
5689 9198
5690 5715
5690 5972
5690 6324
5690 7231
5690 7391
5690 8096
5690 8289
5690 9092
5690 9372
5690 9710
5691 6756
5691 6907
5691 8209
5691 9101
5691 9418
5692 5876
5692 6206
5692 6710
5692 6819
5692 7787
5692 7830
5692 7939
5692 8531
5693 7971
5693 8043
5693 8585
5693 9529
5693 9577
5693 9601
5693 9673
5694 6004
5694 6931
5694 7459
5694 8206
5694 9010
5695 6234
5695 6738
5695 6979
5695 7399
5695 9664
5696 8446
5696 8936
5696 9479
5697 6794
5698 7077
5698 8622
5699 6018
5699 7451
5699 8894
5699 9862
5700 6668
5700 7823
5701 6053
5701 7652
5701 8547
5702 7298
5702 9273
5702 9799
5703 5768
5703 5903
5704 6875
5704 9218
5705 5799
5705 5803
5705 6060
5705 8157
5705 8917
5706 6300
5706 7153
5706 7444
5707 5782
5707 6043
5707 7027
5707 7262
5707 8656
5707 9995
5708 7336
5708 7493
5708 7514
5708 9212
5709 6790
5709 7719
5709 8770
5710 5828
5710 8998
5711 8094
5711 8726
5712 6244
5713 7096
5713 8342
5713 9067
5713 9093
5714 6219
5714 8137
5714 9167
5715 6193
5715 6889
5715 7852
5716 6119
5716 6833
5716 7773
5716 8440
5716 8817
5716 9175
5716 9362
5716 9536
5717 5971
5717 7860
5717 8481
5717 8916
5718 7166
5718 9001
5719 8028
5719 8655
5719 9285
5719 9689
5720 7191
5720 8778
5721 8703
5722 7984
5724 6216
5724 8546
5725 6413
5725 9606
5726 6392
5726 7733
5726 8167
5727 5985
5727 8314
5728 7997
5728 8869
5728 9016
5728 9033
5728 9601
5729 6657
5729 7242
5729 9963
5730 8863
5731 5907
5731 6473
5731 7492
5731 8877
5732 5931
5732 6491
5732 6871
5733 6995
5733 7999
5734 6138
5734 7064
5734 7871
5735 5885
5735 6150
5735 6809
5735 7425
5735 9237
5736 6101
5736 6191
5736 8101
5736 9659
5737 6039
5737 6433
5737 6632
5737 6667
5737 7180
5737 7357
5737 7883
5737 9393
5737 9775
5738 8637
5738 9000
5738 9306
5739 6737
5739 6841
5739 8233
5740 6514
5740 6985
5740 8244
5740 8871
5741 6723
5742 9900
5743 5851
5743 6312
5743 6971
5743 7435
5743 8547
5744 7321
5744 7703
5745 6919
5745 8045
5745 8400
5746 6268
5746 7166
5746 7244
5746 7796
5746 9790
5747 8972
5748 5943
5748 6777
5748 7522
5748 9231
5748 9597
5749 5984
5749 6216
5749 7472
5749 9026
5750 6412
5750 7294
5750 7981
5750 8682
5750 8689
5750 8700
5750 9196
5750 6035
5751 6357
5752 5819
5752 6900
5752 8377
5753 7819
5753 8473
5753 9707
5753 9774
5754 5762
5754 6400
5754 8105
5754 8116
5754 8452
5755 7384
5755 7447
5755 9079
5755 9979
5756 9389
5757 6470
5757 7343
5757 7691
5757 8434
5757 9481
5757 9989
5759 6115
5759 7211
5759 7628
5759 8443
5759 9265
5759 9337
5760 7653
5761 6326
5761 6990
5761 7079
5761 8082
5761 8280
5761 8371
5763 5897
5763 6093
5763 6985
5763 8844
5763 9016
5763 9974
5764 6182
5764 6253
5764 6922
5764 7290
5765 7285
5765 8262
5765 8932
5765 9787
5766 7111
5766 8651
5766 9651
5767 5901
5767 6828
5767 7537
5767 7949
5767 8050
5767 8112
5767 8573
5767 9937
5768 6092
5768 6388
5768 6425
5768 6569
5768 7857
5768 8201
5769 7890
5769 9023
5770 9465
5771 6354
5771 6702
5772 8453
5773 6702
5773 7039
5773 7974
5774 6751
5774 7464
5774 8053
5774 8705
5775 7157
5775 9071
5776 5792
5776 5887
5776 8954
5776 9604
5777 6971
5777 7400
5778 8988
5778 9131
5779 6633
5779 6692
5779 6707
5780 5790
5780 5843
5781 5798
5781 6776
5781 7280
5781 7287
5781 7589
5781 7850
5782 7161
5782 7937
5782 8306
5783 6172
5783 9056
5784 6865
5784 7848
5785 6154
5785 6547
5785 6620
5785 6628
5785 7061
5785 7397
5785 7667
5785 7880
5785 8582
5785 8675
5785 9739
5786 8761
5787 6101
5787 6797
5788 8148
5789 6631
5789 6726
5789 8514
5789 8667
5790 6480
5790 6546
5790 6925
5790 7027
5790 7274
5790 8696
5790 9624
5790 9772
5791 6433
5791 8380
5792 6247
5792 7664
5792 8043
5792 8171
5792 8960
5793 9527
5795 7200
5795 8258
5795 9830
5796 5995
5796 6300
5796 7199
5796 9158
5797 7134
5797 8203
5798 8269
5798 8409
5798 8925
5798 9598
5799 6261
5799 7312
5799 7516
5799 8884
5799 9547
5800 5987
5800 6154
5800 7800
5801 8868
5802 9760
5803 6281
5803 7132
5803 8517
5803 8522
5803 8804
5804 8629
5805 6322
5805 6587
5805 7842
5805 7925
5805 8059
5805 9357
5806 5956
5806 5999
5806 8626
5806 8652
5806 8802
5807 7074
5807 7700
5807 9954
5808 6034
5808 6285
5808 7202
5808 7539
5808 9012
5809 7061
5809 9252
5810 7224
5811 5927
5811 6664
5811 8544
5812 6189
5812 7850
5812 8371
5812 8775
5812 8966
5813 5824
5813 6150
5813 7039
5813 7115
5814 7390
5815 6577
5815 8274
5816 8123
5817 7903
5817 8487
5817 9705
5818 5850
5818 9757
5819 7393
5819 9309
5819 9901
5820 5893
5820 6130
5821 5891
5822 6132
5822 7398
5822 7973
5822 8119
5822 8472
5823 7120
5823 7927
5823 8845
5823 8915
5823 9582
5824 6938
5824 7594
5824 9010
5825 7293
5825 7716
5825 8186
5825 8498
5825 8913
5827 9589
5827 9804
5828 7456
5828 7683
5828 8408
5829 6105
5829 8727
5829 8989
5830 6067
5830 7360
5831 8533
5832 6040
5832 7557
5832 9685
5833 6123
5833 6364
5833 6469
5834 6240
5834 7557
5834 9562
5835 6335
5835 8502
5835 9967
5836 6608
5836 9920
5837 6203
5837 6786
5837 7231
5837 7469
5837 7766
5837 8088
5837 8210
5837 8299
5837 8506
5837 8723
5837 9268
5838 5942
5838 7256
5838 8711
5838 8815
5839 9118
5839 9742
5840 6221
5840 9945
5841 6199
5841 6253
5841 6989
5841 7502
5841 7635
5841 7911
5841 7999
5841 8036
5841 8050
5841 8326
5841 8456
5841 8972
5842 7996
5842 8481
5842 9129
5843 6964
5843 7874
5844 7223
5844 9882
5846 7972
5847 6096
5847 7326
5848 6293
5848 8444
5849 6691
5849 6732
5849 9869
5850 6824
5851 8200
5851 8439
5852 6313
5852 6990
5852 7046
5852 8456
5852 8595
5852 8740
5853 6727
5853 9478
5854 6975
5854 7765
5854 9656
5855 7453
5855 8827
5855 9763
5856 6046
5856 6149
5856 6659
5856 9112
5856 9420
5856 9527
5857 6046
5857 6263
5857 6949
5857 7785
5857 8632
5857 9986
5858 7268
5858 8202
5859 6263
5859 6455
5859 7109
5859 7190
5859 8139
5860 6169
5861 6683
5861 7094
5861 8829
5861 8976
5861 9763
5862 9485
5863 7016
5863 7258
5863 7267
5863 8236
5863 8463
5863 9723
5864 8056
5865 7077
5866 8162
5866 9702
5867 6254
5867 6449
5868 6827
5868 7031
5870 6016
5870 8058
5871 6793
5871 8582
5872 7405
5873 5910
5873 6053
5873 7454
5873 8215
5873 8782
5874 5990
5874 6256
5874 6651
5874 6826
5874 7168
5874 7178
5874 7737
5874 9241
5874 9654
5875 7387
5875 8535
5875 9729
5875 9845
5876 5892
5876 8127
5876 9518
5877 7425
5877 7829
5878 6578
5878 6601
5878 8958
5879 5913
5879 6421
5879 7537
5880 6131
5880 7561
5880 9938
5880 9975
5880 9983
5881 6342
5881 8000
5881 8716
5882 6020
5882 8669
5883 5936
5883 8189
5884 8501
5884 9507
5885 5989
5885 7068
5885 7633
5885 8058
5885 8315
5886 6079
5886 7212
5886 7545
5886 7904
5887 6544
5887 6986
5887 8878
5888 6197
5888 8314
5889 6200
5889 6391
5889 7120
5889 8141
5891 6148
5891 6328
5891 7159
5891 7400
5891 7609
5891 7669
5892 6138
5892 6979
5892 7087
5892 7603
5892 7952
5892 9579
5893 6231
5893 7765
5893 8850
5894 5938
5894 7436
5895 8165
5895 8623
5895 9016
5895 9651
5896 6017
5896 6114
5896 6287
5896 6667
5897 9201
5898 6196
5898 8613
5899 7295
5900 6370
5900 7448
5901 6776
5901 9246
5902 7118
5902 7394
5902 7817
5902 8539
5903 9700
5904 6451
5904 9238
5905 5907
5905 6017
5905 8309
5905 9646
5906 6634
5906 7267
5906 8358
5906 9098
5907 7719
5907 7807
5907 8431
5907 9040
5908 6115
5908 9292
5908 9692
5909 6961
5909 7145
5909 7183
5910 6670
5910 8288
5910 8463
5910 8544
5910 8556
5912 6440
5912 7747
5912 9696
5913 7710
5914 8710
5914 9237
5914 9785
5915 7753
5915 9218
5916 9085
5916 9894
5917 6708
5917 7246
5917 8668
5917 8837
5919 6220
5919 6366
5919 7313
5919 9246
5920 7596
5920 7945
5920 8179
5921 6370
5921 6625
5921 8246
5922 9041
5923 6453
5923 8337
5924 9159
5926 6137
5926 6831
5926 7808
5927 8671
5927 9441
5928 8341
5928 9683
5928 9813
5928 9879
5929 6827
5929 7184
5929 9189
5930 6539
5931 6296
5931 6343
5931 6913
5931 7674
5931 7747
5931 8014
5931 8061
5931 8135
5931 9289
5931 9337
5932 7699
5932 9853
5932 9916
5934 7012
5934 7353
5934 8532
5934 9770
5935 7448
5935 8061
5935 8647
5935 9614
5936 7935
5936 8422
5936 9331
5937 6356
5937 6884
5937 8258
5937 9957
5938 6998
5938 8074
5938 9658
5939 6645
5939 7170
5939 7206
5940 6178
5940 7655
5940 9741
5941 6018
5941 6903
5941 8192
5941 8323
5941 8762
5941 8941
5941 8989
5942 7296
5942 7526
5942 7546
5942 9509
5943 8115
5944 6375
5944 7309
5944 7570
5944 8031
5945 6432
5945 6960
5946 7311
5946 7547
5947 7073
5947 7112
5947 8384
5947 8513
5947 9066
5948 6164
5948 6874
5948 8221
5948 9231
5949 7004
5949 7172
5949 7928
5950 9799
5951 6128
5952 6428
5952 6796
5952 7060
5952 9748
5953 6363
5953 8822
5953 9385
5954 6558
5954 6886
5954 7676
5954 7828
5955 6074
5955 6977
5955 7191
5955 7709
5956 5997
5956 8109
5956 8748
5956 8943
5957 6654
5958 8297
5958 9688
5959 7330
5959 9490
5961 6815
5961 6854
5961 6857
5961 6869
5961 7194
5961 8733
5961 8994
5961 9595
5961 9635
5962 6313
5962 6734
5962 6817
5962 8645
5963 8724
5963 9427
5963 9563
5963 9701
5964 8357
5964 8861
5964 8943
5965 6251
5967 6547
5967 7267
5967 8426
5967 9777
5967 9843
5968 7261
5968 8100
5968 8478
5968 8481
5968 8624
5968 9339
5969 8035
5969 9916
5970 8839
5970 9278
5971 8997
5971 9190
5972 6523
5972 7666
5972 9707
5973 6247
5973 6415
5973 6868
5973 7064
5973 7941
5974 6499
5974 8381
5975 7085
5975 8304
5975 8827
5975 8833
5975 9950
5976 8181
5976 9090
5977 6608
5977 8058
5977 8956
5978 6320
5978 8499
5978 9086
5979 7364
5981 6326
5981 7294
5981 8097
5981 8278
5981 8636
5981 8651
5981 9502
5982 6839
5982 7248
5982 8998
5983 6724
5983 7099
5983 7344
5983 8032
5983 8671
5983 9022
5984 6264
5984 6270
5986 7460
5986 8331
5986 9323
5986 9861
5987 6610
5987 6649
5987 6900
5987 9700
5987 9922
5988 8419
5988 9099
5989 6176
5989 7384
5989 8538
5990 6429
5990 7416
5990 7749
5990 7862
5990 8995
5991 6564
5991 6865
5991 7539
5991 7941
5991 8367
5991 9375
5993 6786
5993 7341
5993 7374
5993 8290
5994 6718
5994 6951
5994 8342
5995 9416
5996 6329
5996 6710
5996 7163
5996 7712
5996 9594
5996 9980
5997 6056
5997 7845
5998 6776
5998 8671
5998 9180
5998 9615
5999 6842
5999 9493
6000 6022
6000 6597
6000 8138
6000 8715
6000 8780
6001 9168
6001 9338
6002 6228
6002 6463
6002 7614
6002 8125
6002 8616
6002 9802
6002 9941
6003 7885
6003 8028
6003 9001
6004 6802
6004 8481
6005 6165
6005 8239
6005 9951
6006 6572
6006 7426
6007 6698
6007 7537
6007 8848
6008 8064
6008 8711
6008 9378
6008 9521
6009 6918
6009 8768
6010 8845
6010 9539
6011 9071
6014 6102
6015 7582
6015 7755
6015 9903
6016 6152
6016 6414
6016 6517
6016 8881
6016 9464
6016 9546
6017 8404
6017 8920
6017 9147
6018 6289
6018 6852
6018 6912
6018 9728
6019 6100
6019 7265
6019 8679
6019 9254
6020 9423
6020 9794
6021 7669
6022 6732
6023 6245
6023 7886
6023 8928
6024 6650
6024 7711
6024 7909
6026 6801
6026 7967
6026 8116
6026 8327
6027 6222
6027 7243
6027 8036
6027 8066
6027 8243
6027 9663
6028 6522
6029 6557
6029 7829
6029 8824
6029 8938
6031 6682
6031 7174
6031 7550
6031 9443
6031 9948
6032 6920
6032 6981
6032 8395
6032 9115
6033 8128
6033 8850
6034 6910
6035 7294
6035 9411
6036 8153
6036 9136
6037 6937
6037 8229
6037 8547
6039 6296
6039 6611
6039 7059
6039 7362
6039 9908
6040 6872
6040 9265
6041 7403
6041 7431
6041 7539
6041 9305
6043 6458
6044 6179
6044 6956
6044 7108
6045 6765
6045 6974
6045 7223
6045 7512
6045 8920
6045 9194
6046 7712
6046 7713
6046 7878
6046 8281
6046 9387
6046 9476
6047 8159
6048 6108
6048 6739
6049 9568
6049 9920
6050 6721
6050 7200
6050 9990
6051 6878
6051 6962
6051 7343
6051 8655
6052 7095
6052 8106
6052 9499
6052 9602
6052 9789
6053 7168
6053 8218
6054 6330
6054 9726
6054 9810
6055 6208
6055 8076
6055 8775
6056 7240
6056 7710
6056 9558
6057 6538
6057 7265
6059 6353
6059 7618
6059 7632
6059 9139
6060 8014
6061 8956
6062 7308
6063 9217
6064 6653
6064 7996
6064 9075
6064 9588
6064 9794
6065 6397
6065 7285
6066 6276
6066 7258
6067 6299
6067 7802
6067 8297
6067 9617
6068 6665
6068 7544
6068 9004
6068 9933
6069 6388
6070 7760
6071 6757
6071 7275
6071 7511
6072 7575
6072 8945
6072 9665
6073 6280
6073 6486
6073 8177
6074 6522
6075 9606
6076 9330
6077 6663
6077 7227
6077 7682
6077 8172
6077 8225
6077 9261
6077 9859
6078 6580
6078 7036
6078 7844
6079 6304
6079 9368
6079 9772
6080 6937
6080 7980
6080 8054
6081 7764
6082 6711
6082 8134
6082 9020
6084 6549
6084 7196
6085 6259
6085 7871
6085 8828
6085 9959
6086 6179
6086 6514
6086 6992
6086 7126
6086 8032
6086 8427
6086 9676
6086 9800
6087 6775
6087 7708
6087 8576
6088 9768
6089 7440
6089 8956
6090 8098
6090 8736
6090 9202
6090 9266
6091 7341
6091 9057
6092 6111
6092 9192
6092 9821
6093 6644
6094 7156
6094 8991
6095 6520
6095 7014
6095 8098
6095 9836
6096 7369
6096 7416
6097 6398
6097 6905
6097 6941
6097 9025
6097 9970
6098 6400
6098 6522
6099 6454
6099 8204
6099 9253
6099 9289
6100 6566
6100 6916
6100 9585
6100 9977
6101 7087
6102 7034
6102 9345
6102 9534
6103 8773
6103 9174
6104 7215
6105 6782
6105 9147
6106 8045
6106 8407
6106 8861
6107 6577
6108 6587
6108 6638
6108 7018
6108 7504
6109 6718
6109 6975
6109 7731
6109 8319
6109 9001
6111 6238
6111 6982
6112 6372
6112 6454
6112 6481
6112 6671
6112 7114
6112 7808
6113 6149
6113 7651
6113 9429
6114 8891
6114 9658
6116 7931
6116 9472
6117 6323
6118 7068
6118 8072
6118 9188
6118 9495
6118 9526
6119 8466
6119 8624
6119 9002
6120 6204
6120 6373
6120 6600
6120 7827
6120 8781
6120 8961
6120 9516
6121 7139
6121 8770
6121 9220
6121 9613
6122 7177
6122 7767
6122 8293
6122 8925
6122 9527
6124 9556
6125 6662
6127 6479
6127 7105
6127 7315
6127 8686
6127 9566
6128 7037
6128 7175
6128 7760
6129 8055
6129 8291
6129 8570
6130 6496
6130 7376
6131 6847
6132 6377
6132 8543
6132 9686
6132 9995
6133 6892
6133 7676
6133 9736
6133 9808
6134 7231
6134 9764
6135 7006
6135 7019
6135 9567
6136 7238
6137 6315
6137 6555
6137 8279
6137 8644
6137 9140
6138 6559
6138 7878
6138 8213
6138 8283
6139 6516
6139 9278
6140 7136
6140 9022
6140 9945
6141 7263
6141 8421
6141 8763
6142 6330
6142 7052
6142 7293
6142 7893
6142 9443
6144 6889
6144 8014
6145 7832
6145 8593
6145 9177
6145 9975
6146 7509
6146 9553
6147 6315
6148 6554
6148 7503
6148 9235
6149 6671
6149 7044
6149 7684
6150 7397
6150 7981
6151 6337
6151 7199
6152 9895
6153 8182
6154 6724
6154 7660
6154 8934
6155 6708
6155 7021
6155 8199
6155 9478
6156 6299
6156 7155
6156 7863
6156 8721
6156 9968
6157 6200
6157 6404
6157 6752
6157 7472
6157 7710
6157 9222
6158 6544
6158 6735
6158 6814
6158 9752
6158 8871
6159 6890
6161 6583
6161 8903
6162 7312
6162 8346
6163 7205
6163 9826
6164 8140
6164 8834
6165 7817
6165 8702
6165 8845
6166 8242
6167 8519
6168 7561
6168 9969
6169 6413
6169 7050
6169 9905
6169 9996
6171 6241
6171 7072
6171 7282
6171 7689
6171 9124
6172 7032
6172 8522
6172 8779
6173 6478
6173 7917
6174 8000
6174 9997
6175 7892
6175 8166
6175 8958
6176 9616
6177 8725
6178 6652
6178 7149
6178 9312
6178 9602
6178 9622
6179 6457
6179 7042
6179 7922
6179 8650
6180 6434
6180 6762
6180 9391
6180 9302
6181 7803
6181 8229
6182 7230
6182 8695
6183 7561
6183 7654
6185 7185
6185 8672
6185 9485
6185 9956
6186 7133
6186 9175
6187 7560
6187 8802
6188 9524
6189 6624
6189 7972
6189 8732
6189 8808
6190 8300
6190 9150
6191 7975
6191 8702
6192 7959
6192 8230
6192 8577
6192 8729
6192 9310
6192 9682
6193 7924
6193 8030
6193 8358
6193 9471
6194 7709
6194 8177
6195 6802
6195 7594
6195 8178
6195 8893
6195 9844
6197 7522
6197 8514
6197 9521
6198 7189
6198 8250
6199 6779
6199 6974
6199 7640
6199 9863
6200 6966
6200 9099
6201 7295
6201 7571
6201 7630
6201 8392
6201 8780
6201 9121
6201 9633
6201 9790
6202 6967
6202 8986
6202 9285
6202 9411
6202 9752
6203 6781
6203 8699
6204 7677
6204 8101
6205 9605
6206 6319
6206 6366
6206 7330
6206 7966
6206 8290
6207 7591
6207 7805
6207 8403
6208 8628
6208 9111
6209 6593
6209 8284
6209 9297
6212 6691
6212 8923
6213 6453
6213 7508
6213 8792
6214 6726
6215 7179
6216 6585
6216 7025
6217 7128
6217 9620
6217 9940
6218 6274
6218 7090
6218 7225
6218 7582
6218 8608
6218 8657
6218 9123
6218 9376
6219 8106
6219 8717
6219 9137
6219 9443
6220 7063
6220 7309
6220 7388
6221 7123
6221 7926
6221 8798
6221 8800
6221 9765
6222 8348
6222 9096
6223 6522
6223 9373
6223 9865
6224 8607
6224 9922
6225 6494
6225 7441
6225 7729
6225 9176
6226 7456
6226 7964
6229 8805
6229 9021
6229 9274
6230 8981
6231 6390
6231 6426
6231 8733
6231 9128
6232 6971
6232 7292
6232 7326
6232 9621
6233 6824
6233 7754
6233 7919
6233 8528
6233 8552
6233 9667
6234 7310
6234 9197
6235 6325
6235 9942
6236 7238
6236 7527
6236 7598
6236 8487
6236 9596
6237 8288
6237 8689
6237 9606
6238 7656
6238 8487
6239 6358
6239 6500
6239 8801
6239 9370
6239 9397
6239 9756
6239 9814
6240 6532
6240 8629
6241 7534
6241 8167
6242 7869
6242 8652
6243 6698
6243 8648
6243 8662
6243 8713
6244 6604
6244 8054
6244 9599
6245 6685
6245 8086
6245 8495
6245 9476
6246 6590
6246 6860
6246 6929
6246 7013
6246 8660
6246 9241
6247 7268
6248 7688
6248 8864
6248 9471
6249 6493
6249 8356
6249 9260
6251 8537
6251 9783
6252 6806
6253 7617
6254 8044
6254 8433
6254 8918
6255 8214
6255 8867
6256 7291
6256 7481
6256 7809
6257 6584
6257 6827
6257 9233
6258 6299
6258 6717
6258 7946
6258 9380
6258 9130
6259 7114
6259 7406
6259 8225
6259 8241
6260 7869
6260 9891
6261 6357
6261 6493
6262 7531
6264 6555
6264 7019
6265 9718
6265 9817
6266 6736
6266 7543
6266 9428
6266 9561
6267 6641
6267 9502
6268 6609
6269 7985
6271 7630
6271 8523
6271 8689
6271 9233
6272 9159
6273 6717
6276 6323
6276 6981
6276 7691
6276 9006
6276 9601
6277 7702
6277 8679
6277 8957
6278 6758
6278 7299
6279 6770
6279 8914
6280 8498
6280 9859
6281 7981
6281 9503
6281 9754
6282 6517
6282 7409
6282 9054
6283 8321
6283 9338
6283 9383
6284 6300
6284 9631
6284 9650
6285 7724
6285 9254
6286 6932
6286 7201
6286 7598
6286 8364
6286 8745
6287 6434
6290 6883
6290 7126
6290 8639
6292 6731
6292 6907
6293 6308
6293 6841
6293 7382
6293 8091
6294 7702
6295 6425
6295 7181
6295 8009
6295 9389
6296 7197
6296 7411
6298 6428
6298 8963
6299 7096
6299 7806
6299 8847
6299 9068
6299 9487
6300 9699
6301 9336
6302 6507
6302 9127
6303 7823
6303 8272
6304 7952
6304 9450
6305 6752
6305 7481
6305 7721
6305 7964
6305 8148
6305 9290
6305 9428
6306 7666
6306 8349
6306 8594
6306 9045
6306 9477
6306 9635
6306 9942
6307 7052
6307 9049
6307 9101
6308 6988
6308 8194
6309 8987
6309 9503
6311 6349
6311 6520
6311 7136
6311 7464
6311 8652
6311 8680
6312 7212
6312 8198
6312 8762
6312 8857
6313 7811
6315 7016
6315 7876
6315 9905
6316 7128
6316 7341
6316 9131
6317 7907
6317 8364
6317 9934
6318 8627
6318 8834
6319 6701
6319 8894
6319 8957
6319 9117
6320 7303
6320 7386
6320 7515
6320 9014
6320 9038
6320 9885
6322 6367
6322 6463
6322 6794
6322 6982
6322 8279
6322 8570
6322 9104
6323 6871
6324 7708
6325 6632
6325 8403
6325 8842
6325 9717
6326 6836
6326 7730
6326 8830
6328 7568
6328 7885
6328 8023
6328 9826
6329 6776
6329 8400
6329 8729
6330 7648
6331 6497
6331 9823
6332 6647
6332 7074
6332 9112
6332 9734
6333 7090
6333 7418
6333 8176
6333 8433
6334 6378
6334 6484
6334 8488
6335 6446
6335 6484
6335 7933
6335 9354
6335 9740
6335 9797
6336 7631
6336 8982
6337 6928
6337 8889
6338 7314
6338 8510
6339 8257
6339 9818
6340 6413
6340 6609
6340 7262
6340 9097
6340 9327
6340 9837
6340 9872
6340 9953
6342 6500
6342 8469
6342 9103
6343 8523
6343 9028
6343 9797
6344 8145
6344 8555
6344 9535
6345 7551
6345 8038
6345 9539
6346 7398
6346 7638
6346 8650
6346 9225
6347 6441
6347 8608
6347 9047
6350 6395
6350 8313
6350 8516
6350 9766
6352 6529
6352 6699
6354 7804
6354 8142
6354 8594
6355 7711
6355 9361
6356 6756
6356 8311
6356 9455
6357 6995
6358 6580
6358 7796
6358 7804
6358 8253
6358 8717
6358 9423
6358 9501
6359 9563
6359 9709
6360 6548
6360 6649
6360 7048
6361 7609
6361 8248
6361 9856
6362 6660
6362 6796
6362 7291
6362 8950
6364 9272
6364 9729
6365 6606
6365 7135
6365 7399
6365 7414
6365 7503
6365 8407
6365 8812
6365 9429
6365 9527
6366 6433
6366 6602
6366 8199
6366 8796
6366 9211
6367 8424
6367 8490
6368 6823
6368 7114
6368 7354
6368 7934
6368 9641
6369 6989
6370 6541
6370 7046
6370 8769
6372 7096
6372 7664
6372 9661
6373 7181
6373 8092
6373 8358
6373 8429
6373 8822
6375 8567
6375 9607
6376 7423
6376 7466
6376 8337
6377 6636
6377 8427
6377 9393
6378 6778
6378 7001
6378 8084
6378 9175
6379 8027
6379 8414
6380 7164
6380 8343
6380 8475
6380 8813
6381 6852
6382 8791
6382 8895
6383 7339
6383 8065
6383 8240
6383 8879
6384 6837
6384 7323
6384 7580
6384 8362
6384 9132
6385 6906
6386 6595
6386 7262
6387 6761
6387 8924
6388 6442
6388 6575
6388 8740
6388 8808
6389 6542
6389 8451
6390 8047
6390 9917
6391 8068
6391 8620
6391 8647
6391 9150
6392 6836
6392 7756
6392 9794
6393 9663
6394 6828
6394 7145
6394 7404
6394 9322
6395 6974
6395 8226
6396 7300
6396 7687
6398 8163
6398 9785
6398 9929
6399 6694
6399 6721
6399 6806
6399 7261
6399 9224
6399 9732
6399 9747
6401 8768
6401 9345
6402 7212
6403 7740
6403 9124
6403 9305
6403 9389
6403 9408
6404 9371
6405 7227
6405 9482
6406 6518
6406 9014
6406 9049
6406 9069
6407 6682
6407 7752
6407 7847
6407 8265
6407 8967
6407 9381
6408 6908
6408 7270
6408 8455
6409 6716
6409 7500
6409 8177
6409 9397
6410 7133
6410 7799
6411 6728
6411 8211
6412 6865
6412 8309
6412 9133
6413 6688
6413 7012
6413 8138
6413 9095
6413 9732
6414 6708
6415 8932
6415 9018
6416 7401
6417 6467
6417 6758
6418 7677
6419 8583
6419 9817
6420 7039
6420 7646
6420 7785
6421 6666
6421 7704
6421 9688
6422 6721
6422 8373
6422 8806
6422 9238
6423 7379
6424 6492
6425 6600
6425 6695
6425 7873
6425 9741
6426 6558
6426 6610
6426 8262
6426 8517
6427 9229
6428 7609
6429 9013
6430 6527
6430 8324
6431 7402
6431 7547
6431 7834
6431 9879
6432 6928
6432 7346
6432 8657
6432 9009
6432 9918
6433 8370
6434 6859
6434 7834
6434 9070
6434 9264
6435 7135
6435 8524
6435 9380
6436 6651
6436 6754
6436 7231
6436 8361
6436 8822
6437 6515
6437 6730
6437 7584
6437 7788
6437 8353
6438 6773
6439 6696
6439 6955
6439 6987
6439 7248
6439 8788
6440 7541
6440 7620
6441 7129
6441 7234
6441 7696
6441 8975
6441 9727
6442 6811
6442 8478
6442 9459
6442 9941
6444 6746
6444 6750
6444 7943
6445 6538
6445 7500
6445 9530
6446 7063
6446 7407
6446 9802
6447 6773
6449 6768
6449 8676
6449 9046
6450 6835
6450 7334
6450 7939
6450 8234
6450 8824
6450 8949
6450 9986
6450 9987
6451 7106
6452 6983
6452 7866
6453 6739
6453 7260
6453 7379
6453 7413
6453 8418
6453 8584
6453 9226
6453 9398
6454 8077
6454 9103
6454 9296
6455 9812
6456 6723
6458 8818
6458 9360
6458 9772
6458 9945
6459 7082
6459 7453
6459 7620
6459 7867
6459 9750
6460 7406
6460 9576
6461 9737
6463 8313
6463 8781
6464 6545
6464 7359
6464 7506
6464 8330
6464 9002
6466 6568
6466 8941
6467 9114
6467 9709
6468 6668
6469 8280
6469 9612
6469 9877
6470 8194
6471 6621
6471 6633
6471 6842
6471 7782
6471 7918
6471 8531
6472 6648
6472 6930
6472 7769
6472 9232
6473 8749
6474 7857
6476 7653
6477 8438
6477 9068
6477 9189
6477 9268
6479 7575
6479 7753
6479 8830
6479 9430
6479 9946
6480 7371
6480 8723
6480 8838
6481 6865
6481 7297
6482 7165
6482 8910
6482 8911
6482 8998
6482 9580
6483 7234
6483 8067
6483 9762
6484 7740
6484 9405
6485 7417
6485 7856
6485 8250
6485 9035
6486 6954
6486 6996
6487 7234
6487 9693
6488 7293
6488 9304
6490 6592
6490 6873
6490 7699
6490 8328
6492 8340
6493 7306
6493 9201
6494 6641
6494 6928
6494 7608
6495 8139
6495 8282
6496 7253
6496 8088
6496 8359
6497 7366
6497 8425
6498 7752
6498 7563
6498 8617
6499 8915
6501 6878
6501 8016
6501 8610
6501 8929
6502 8209
6502 9901
6503 6871
6503 8558
6505 6826
6505 8405
6505 8504
6505 8856
6506 8586
6506 8800
6507 6753
6507 8042
6507 8243
6507 8334
6507 8361
6508 8306
6508 8806
6508 8970
6509 7718
6509 8905
6510 6958
6511 7879
6512 6897
6512 8588
6513 6901
6513 9582
6513 9723
6514 6819
6514 7729
6514 9918
6515 7999
6515 8070
6515 9236
6516 7109
6516 9151
6516 9259
6516 9412
6517 8490
6517 9047
6518 7388
6518 9191
6519 7800
6519 8130
6519 8724
6519 9481
6520 8589
6521 7939
6521 8791
6521 9017
6521 9147
6521 9451
6522 6979
6522 7772
6522 8757
6523 6760
6523 7160
6524 7601
6524 8813
6525 6918
6525 9657
6526 9724
6527 7004
6527 7551
6528 6582
6528 7413
6528 7520
6528 8905
6529 9625
6530 7288
6530 7442
6530 8813
6530 9838
6531 6560
6533 6664
6533 7464
6533 7731
6533 8228
6535 7358
6535 7555
6535 8138
6535 8236
6535 8587
6536 6617
6536 6790
6536 7886
6536 9442
6537 6585
6537 6593
6537 7655
6538 6779
6538 7064
6538 7427
6538 8244
6538 8439
6538 8718
6539 7081
6540 8354
6541 9243
6541 9846
6542 7718
6542 8897
6544 6591
6544 8931
6544 9899
6545 6938
6545 7275
6545 7895
6545 8937
6545 9618
6545 9725
6547 7152
6547 9956
6548 6891
6549 7460
6549 9072
6549 9726
6549 9776
6550 9447
6550 9475
6552 8735
6552 7462
6553 6605
6553 8823
6553 9361
6554 8137
6554 8790
6555 7467
6555 7718
6556 6786
6556 7785
6556 7981
6556 9036
6556 9184
6557 7574
6557 7914
6558 6654
6558 6672
6558 7393
6558 8005
6558 8596
6559 7007
6561 8069
6561 9833
6562 7080
6562 7367
6562 9981
6563 6973
6563 7336
6563 8270
6563 9376
6563 9852
6564 8521
6564 9379
6565 8632
6565 9705
6566 6570
6566 7140
6566 7491
6566 8028
6567 7297
6567 7302
6568 7569
6569 7000
6569 9201
6570 9789
6571 7876
6571 7993
6571 8291
6571 8388
6572 6760
6573 9978
6573 9991
6574 6594
6574 7437
6574 8073
6574 9651
6575 8116
6576 7560
6576 7875
6576 8048
6576 8059
6576 8064
6576 9006
6576 9546
6576 9948
6577 7145
6577 8773
6578 7467
6578 7638
6578 7766
6578 9777
6578 9895
6579 7596
6579 8223
6579 8265
6579 8658
6579 9148
6579 9166
6581 6777
6581 7846
6581 9153
6582 7431
6582 8067
6582 9277
6583 6972
6583 7123
6583 7263
6583 8364
6583 8798
6584 6875
6584 7056
6584 7246
6585 7335
6585 8153
6585 8282
6585 8337
6586 9567
6588 8459
6588 8579
6588 9316
6589 6671
6589 7935
6589 9894
6590 7994
6590 9267
6590 9493
6590 9519
6590 9995
6591 6669
6591 8464
6591 8911
6592 7123
6592 7204
6592 7883
6592 7963
6592 8360
6593 6768
6593 7687
6593 7690
6593 7917
6593 9000
6594 7073
6594 7775
6594 9656
6595 6798
6596 7551
6596 8898
6597 8428
6597 8927
6597 9867
6598 7752
6598 9677
6600 9229
6601 6625
6601 7220
6601 9498
6602 7485
6603 7444
6604 6619
6604 6895
6604 8266
6605 6784
6605 9918
6606 8075
6607 7046
6607 8110
6607 8464
6607 8692
6607 9752
6608 8225
6609 8202
6609 9194
6609 9832
6610 7542
6610 8479
6610 9133
6610 9175
6611 8278
6611 8627
6611 9065
6611 9347
6611 9582
6612 8171
6612 9798
6612 9821
6613 7368
6614 7645
6614 9511
6615 6957
6615 7287
6615 7935
6615 8394
6615 9958
6617 8621
6618 8164
6618 8581
6620 7427
6620 7518
6620 8450
6620 8915
6621 8124
6621 8276
6621 9432
6623 7462
6623 8235
6624 6914
6624 7632
6624 9650
6625 9958
6626 8680
6627 8223
6628 9783
6629 8650
6630 7461
6630 8001
6630 8650
6630 8699
6632 6765
6632 8889
6633 6984
6633 7220
6633 8032
6633 9674
6634 7053
6634 7221
6634 8818
6635 6991
6635 8027
6636 9608
6637 6711
6637 8865
6638 6922
6638 8063
6638 8972
6638 9015
6638 9240
6640 7648
6641 6717
6641 7509
6641 8423
6641 9409
6641 9900
6641 9994
6642 6829
6642 9140
6643 9929
6644 7986
6645 6687
6645 7130
6645 7715
6645 7857
6645 7905
6645 7092
6646 9623
6646 9993
6647 7931
6647 8527
6647 8998
6647 9591
6648 6857
6648 9603
6648 9990
6649 8048
6649 8985
6652 6828
6652 8036
6653 6659
6653 7468
6653 9234
6653 9876
6654 7060
6654 7075
6654 9525
6654 9953
6655 7384
6655 7925
6655 8484
6655 9440
6655 9538
6656 7173
6656 8070
6656 8318
6657 8197
6657 9527
6658 7096
6658 7560
6658 8318
6658 8735
6658 8841
6658 9090
6658 9250
6658 9683
6658 9884
6659 8356
6659 9304
6660 7616
6661 7300
6661 7793
6661 8569
6662 7533
6662 8178
6662 8325
6662 9143
6663 7040
6663 7965
6663 8220
6664 7518
6664 8955
6665 7010
6665 9288
6667 8596
6668 8249
6668 8918
6669 7270
6670 7619
6670 9514
6671 8615
6671 8620
6671 8943
6671 9931
6672 7256
6672 9092
6672 9478
6672 9504
6672 9738
6673 9255
6673 9596
6674 9441
6675 8756
6675 8840
6676 7967
6677 7122
6677 7389
6677 8528
6677 9845
6678 6738
6678 7029
6678 7244
6678 9871
6679 7326
6679 8673
6679 8685
6679 9554
6679 9851
6680 7240
6680 7286
6680 7465
6680 8847
6680 9161
6680 9163
6680 9292
6680 9419
6680 9453
6681 6995
6681 7256
6682 8207
6683 8593
6684 7423
6685 8053
6685 9003
6686 8511
6686 9935
6687 7014
6688 7273
6688 7929
6688 9983
6689 7011
6689 8384
6689 9163
6690 7404
6690 9711
6691 8477
6691 9169
6692 9436
6693 9923
6694 9763
6695 7130
6695 7202
6695 7834
6695 8319
6695 8714
6695 8946
6696 8025
6697 6935
6697 7131
6697 7379
6697 8590
6697 9939
6698 8748
6699 6820
6699 8896
6700 7004
6701 7502
6701 8215
6701 9813
6702 7692
6702 9008
6702 9225
6702 9754
6703 7966
6703 8449
6703 8461
6705 7103
6705 8467
6706 7071
6706 8181
6706 8267
6706 8665
6706 9311
6707 9381
6707 9389
6708 7319
6709 6736
6709 8165
6709 9266
6709 9603
6710 7335
6710 7568
6710 7911
6710 8323
6712 7646
6712 7653
6712 8495
6713 8204
6713 8909
6713 9067
6714 6757
6714 6899
6714 7505
6714 8962
6715 6841
6715 7563
6715 9396
6715 9588
6716 9821
6717 7698
6717 8084
6717 9847
6719 7177
6719 8262
6720 6738
6720 7435
6720 7924
6721 7080
6721 7739
6721 7765
6721 9199
6722 7415
6722 8466
6723 7227
6723 8426
6723 9585
6725 6771
6725 7971
6725 8537
6725 8672
6725 8802
6725 9150
6725 9595
6726 7113
6726 8406
6727 7093
6727 7126
6727 7444
6727 8017
6728 6937
6728 7225
6728 7741
6728 8588
6728 8649
6728 8939
6728 9047
6728 9895
6729 7770
6729 9313
6729 9564
6729 9786
6730 8060
6730 8351
6730 8369
6731 7307
6731 7731
6731 7932
6731 8143
6731 8206
6731 8825
6731 9528
6732 8517
6732 9692
6732 9951
6733 7003
6733 8516
6733 9892
6734 7303
6734 9583
6736 8000
6736 8107
6738 9612
6740 7176
6740 7419
6740 7487
6740 7644
6740 7858
6740 9048
6740 9115
6740 9628
6740 9993
6741 6951
6741 7245
6742 8115
6743 8075
6743 8523
6743 9339
6744 6908
6744 7476
6744 9961
6745 8185
6745 8727
6745 9515
6746 7079
6746 7155
6746 7809
6746 7854
6746 8683
6747 8650
6748 8966
6748 9672
6748 9986
6749 7833
6749 8243
6749 9728
6749 9854
6750 7587
6750 7597
6750 7607
6750 8030
6750 9046
6751 8050
6751 8471
6751 8545
6752 7123
6752 9075
6752 9179
6752 9556
6753 9422
6754 8405
6754 9636
6755 8188
6755 9139
6756 7573
6756 8399
6757 8803
6758 7033
6759 6812
6759 7325
6759 8437
6759 9993
6760 6899
6760 7598
6760 8574
6761 7260
6761 8783
6761 9551
6762 7292
6762 7735
6762 9744
6763 7790
6764 7070
6764 9045
6765 6911
6768 8970
6769 6790
6769 6957
6769 7088
6769 7902
6769 8994
6771 7150
6771 7832
6771 8720
6771 8732
6772 7003
6773 8812
6774 9974
6775 7519
6776 8024
6777 6963
6777 7359
6777 9896
6779 7506
6779 7551
6779 7730
6779 7846
6780 8022
6782 6821
6783 7500
6784 8158
6784 8688
6784 9388
6786 6931
6786 7622
6786 7915
6786 9889
6787 8416
6788 8483
6788 9636
6789 7619
6789 7791
6789 8949
6790 7375
6790 8637
6790 9294
6791 7240
6791 8522
6791 9270
6791 9893
6792 8322
6792 8742
6793 7249
6793 9057
6795 6834
6795 6923
6795 7069
6795 7826
6795 8563
6795 8862
6795 9080
6795 9147
6795 9712
6796 7297
6796 8862
6797 7463
6797 9287
6798 7233
6799 7397
6803 8860
6804 7290
6804 7438
6804 9463
6804 9649
6805 8052
6805 8205
6805 8970
6805 9806
6806 8477
6807 9479
6808 7293
6808 9007
6808 9100
6808 9311
6809 8238
6809 8276
6810 7000
6810 7121
6812 7826
6813 7909
6813 8910
6813 8990
6813 9914
6814 7839
6814 8934
6815 7424
6815 7600
6816 7829
6816 8026
6816 9618
6817 8144
6818 7709
6819 7780
6819 8260
6820 6927
6820 8778
6821 6873
6821 7018
6821 7920
6821 8204
6821 8983
6821 9701
6822 7514
6822 9428
6823 8494
6824 9274
6825 8789
6826 6926
6826 7605
6827 7313
6827 8714
6827 9470
6827 9825
6828 7721
6829 7532
6829 8917
6829 9563
6830 7210
6830 8612
6831 6838
6831 8212
6832 8190
6832 9253
6832 9434
6833 8072
6833 9107
6833 9386
6833 9846
6833 9989
6834 9847
6834 9952
6835 8621
6837 7175
6837 7328
6837 7801
6837 8213
6837 8779
6837 9144
6838 8779
6838 8969
6838 9018
6839 7361
6839 7971
6839 8817
6840 7134
6841 7208
6841 7635
6841 7791
6842 8278
6843 6987
6843 7809
6844 8460
6844 8507
6844 8577
6846 9643
6847 6963
6847 8706
6847 9621
6849 8094
6849 9838
6850 8351
6850 9700
6851 7519
6852 7556
6852 7997
6852 8464
6852 9763
6853 7234
6854 6945
6854 7480
6854 8828
6854 9284
6855 8295
6856 8072
6857 7985
6857 9382
6857 9875
6858 7658
6858 7914
6858 8805
6858 9965
6859 7317
6859 9133
6862 9300
6863 8564
6863 8639
6863 9041
6864 9214
6864 9596
6865 8996
6866 9682
6868 7716
6868 8236
6868 9289
6868 9418
6868 9602
6870 7236
6870 7662
6870 9375
6871 7229
6872 8111
6872 9343
6872 9911
6872 9993
6875 9495
6875 9736
6876 6990
6876 7579
6876 8837
6876 8994
6877 9154
6878 7720
6878 8644
6881 8530
6882 8740
6883 9658
6884 7147
6884 7265
6884 7448
6886 7260
6886 7647
6886 8027
6886 8963
6887 9923
6888 7867
6888 8034
6888 8178
6888 9338
6888 9624
6889 8293
6889 9541
6890 7806
6890 8236
6890 8967
6890 9604
6891 7254
6891 7391
6891 8327
6891 9358
6891 9553
6892 8733
6892 9093
6892 9662
6893 7276
6894 7195
6894 7515
6895 7414
6895 7970
6895 8555
6896 7126
6896 7281
6896 8174
6896 9737
6897 8386
6897 9482
6897 9757
6898 6969
6898 7535
6898 8185
6898 9928
6899 6933
6899 9142
6899 9489
6900 8055
6900 8864
6900 9369
6902 8460
6902 9589
6903 6942
6903 7543
6903 7830
6903 9664
6904 8386
6904 9235
6905 9030
6905 9213
6905 9234
6906 8151
6906 8269
6906 9446
6906 9657
6907 7355
6908 8505
6909 7021
6910 6954
6911 9319
6912 9383
6913 7368
6913 7445
6914 7814
6914 8660
6914 9068
6914 9603
6915 8308
6915 9352
6916 9336
6917 6950
6918 7474
6918 7987
6919 7698
6919 8597
6919 9665
6920 8173
6920 8596
6921 9036
6921 9952
6923 8542
6924 7323
6924 8461
6924 9793
6924 9952
6926 8810
6926 9291
6927 9458
6928 7407
6928 8995
6929 8148
6929 9239
6929 9600
6930 8763
6931 7598
6931 8175
6931 9074
6931 9214
6931 9663
6933 7347
6933 7437
6933 7511
6933 8308
6933 8394
6934 7023
6934 7197
6936 7065
6936 8224
6937 7569
6938 8522
6939 7059
6939 7279
6940 9329
6941 7907
6941 8858
6942 7629
6942 7741
6942 8290
6942 8961
6943 7368
6943 8351
6943 9041
6945 7031
6945 7348
6945 9932
6946 7998
6946 8794
6947 7189
6947 8875
6947 8911
6948 9099
6949 8236
6951 9035
6952 7043
6953 8410
6954 8239
6954 8736
6954 9821
6955 7008
6955 7555
6955 9667
6957 9379
6958 8919
6958 9100
6958 9586
6959 7221
6959 7365
6959 8083
6959 9240
6960 6988
6961 7490
6962 7305
6962 7529
6962 9372
6963 7342
6963 7500
6963 8849
6963 9274
6963 9567
6963 9763
6963 9991
6965 7821
6966 8164
6966 8830
6966 9394
6966 9778
6967 7034
6967 7707
6967 9386
6969 8176
6969 8453
6971 7813
6971 8503
6971 9430
6972 8270
6974 7491
6974 8394
6975 7942
6975 8118
6975 8840
6976 9177
6976 9980
6981 7007
6981 7420
6981 7426
6981 8675
6982 7397
6982 7989
6982 8057
6982 9229
6984 7380
6985 7202
6985 9531
6988 7525
6988 9415
6989 7572
6990 7911
6992 9412
6993 7315
6994 8634
6994 8867
6994 8968
6994 9195
6994 9890
6995 7153
6995 7409
6995 8374
6995 8517
6995 8707
6996 7499
6996 9076
6997 7971
6997 8042
6997 8817
6997 8931
6997 9509
6998 7663
6999 7511
6999 8889
6999 9761
6999 9999
7000 8062
7000 9655
7001 7272
7001 9728
7002 7768
7005 8798
7005 9029
7006 8042
7007 8917
7007 9342
7008 7287
7008 7673
7008 8128
7009 7514
7009 7608
7009 9480
7010 9721
7011 7429
7012 8296
7012 8938
7012 9652
7013 9606
7015 7706
7015 8430
7016 7744
7016 8260
7018 9493
7018 9870
7019 7591
7019 8164
7019 8917
7019 9252
7021 7831
7021 8328
7022 7305
7023 7834
7024 8766
7024 8804
7024 9297
7025 9149
7026 9136
7026 9219
7027 7323
7027 7717
7027 7755
7027 7980
7027 8682
7027 9680
7028 8486
7029 8146
7031 9695
7031 9744
7032 7148
7032 7856
7032 9575
7032 9967
7033 7195
7033 9499
7033 9705
7034 7461
7034 8742
7035 7840
7035 9492
7036 9628
7037 7110
7037 9184
7037 9748
7037 9902
7038 8658
7038 8742
7039 7250
7039 7377
7039 7699
7039 9805
7039 9998
7040 7595
7040 7979
7040 8349
7040 9584
7040 9769
7042 8976
7043 9540
7044 9423
7045 7959
7045 8347
7045 9500
7046 8558
7046 9076
7047 7337
7047 7884
7049 8439
7050 7714
7050 9590
7050 9860
7051 7840
7051 7858
7052 8092
7052 8771
7052 8823
7053 8896
7054 7081
7054 8067
7055 9034
7056 7849
7057 9767
7058 7331
7058 8132
7058 8731
7059 9552
7060 8311
7061 8142
7061 9955
7062 7703
7062 8282
7062 9453
7063 7449
7063 7618
7064 7287
7064 9009
7065 8566
7066 9856
7067 8154
7068 7457
7068 8612
7070 8870
7070 9240
7071 8034
7071 9551
7072 8359
7072 9674
7073 7573
7073 7886
7073 8805
7074 8954
7074 9603
7075 8858
7075 9269
7076 8973
7077 7343
7078 7530
7079 7679
7079 8988
7080 8272
7080 8283
7080 8714
7080 8894
7081 7959
7081 9617
7082 8461
7082 9281
7083 7546
7083 7966
7083 8711
7085 7331
7085 8569
7085 8638
7085 9014
7086 8059
7086 8378
7087 7291
7087 7472
7087 9200
7087 9297
7088 7641
7088 8342
7088 8382
7089 8134
7089 9421
7090 8091
7090 9882
7091 7152
7091 7328
7092 7696
7092 8201
7092 9079
7092 9341
7092 9652
7093 9572
7094 7814
7094 8062
7095 9558
7096 8477
7097 7597
7097 7604
7097 9262
7098 8320
7098 8499
7098 8510
7098 8906
7098 9152
7099 7736
7100 7134
7100 7709
7100 7739
7100 9135
7100 9265
7100 9381
7100 9548
7100 9920
7100 9929
7101 8616
7101 9093
7102 7275
7102 7322
7102 9215
7103 7655
7103 8584
7103 8612
7103 9197
7104 8002
7105 7130
7105 7574
7105 8375
7106 7365
7106 8155
7106 8415
7106 8632
7107 7114
7107 7412
7107 9741
7108 9609
7110 7447
7110 8332
7110 8659
7111 8704
7111 9157
7111 9871
7112 8262
7112 8536
7113 7139
7113 8008
7114 9734
7115 7284
7116 8812
7116 9573
7116 9834
7117 8914
7118 8026
7118 8857
7119 9804
7119 9935
7120 7918
7121 9873
7123 8027
7124 9796
7125 7647
7125 8152
7125 9121
7126 7913
7126 9708
7127 7410
7127 7479
7127 7670
7128 8102
7128 9183
7128 9518
7129 9474
7130 7254
7130 8428
7130 8431
7131 8914
7132 8105
7134 8734
7134 9038
7134 9041
7134 9172
7135 9755
7136 7289
7137 7190
7137 7977
7137 8704
7138 7794
7138 9611
7139 8181
7140 7550
7140 7803
7140 8967
7141 7207
7141 8467
7141 8476
7141 8662
7141 9895
7142 9357
7143 7157
7143 8928
7143 9510
7145 8108
7146 7449
7146 7555
7148 7546
7148 8582
7148 8957
7148 9415
7148 9445
7149 7178
7149 7599
7150 8197
7150 9591
7151 7654
7152 7507
7152 7642
7153 7382
7154 9077
7156 8407
7157 7278
7157 8287
7157 9549
7157 9619
7158 7894
7158 8818
7160 9653
7161 9961
7162 7280
7162 8053
7162 9312
7162 9664
7162 9857
7162 9960
7163 7773
7163 8253
7164 7311
7164 7817
7164 7891
7164 9134
7165 8980
7165 9578
7166 7458
7166 7924
7166 8953
7166 8959
7167 7657
7167 9690
7168 7362
7168 7960
7168 9749
7170 7497
7170 8012
7170 8118
7170 9552
7171 7578
7171 8489
7171 9190
7171 9419
7172 8222
7172 8894
7172 9497
7173 9308
7174 7810
7174 9086
7176 9150
7177 8497
7178 9203
7178 9378
7178 9590
7179 7719
7179 7838
7179 8737
7180 7683
7180 8096
7180 8254
7180 8669
7181 7570
7181 9690
7182 7393
7182 7651
7182 7825
7182 8370
7182 9764
7186 7487
7186 7764
7186 8061
7186 9443
7187 7345
7187 7769
7187 8133
7188 9321
7190 7983
7190 9746
7191 7892
7191 9870
7192 8050
7192 8883
7193 8101
7193 8895
7193 9080
7194 7471
7194 9265
7196 8670
7196 8931
7197 7775
7197 8630
7197 9747
7198 8764
7200 8638
7200 8768
7200 9277
7200 9918
7202 7731
7202 9328
7204 7467
7204 8834
7204 9092
7204 9783
7205 7453
7206 9515
7206 9825
7207 8167
7208 8263
7208 8273
7208 9648
7208 9835
7209 8105
7209 9754
7210 8895
7210 8981
7210 9366
7211 7676
7211 8741
7211 9086
7211 9220
7213 7706
7213 8829
7213 9433
7213 9704
7215 7843
7216 7449
7216 7983
7216 8648
7217 8960
7218 8454
7218 9002
7218 9205
7218 9631
7218 9970
7220 8420
7220 9078
7220 9837
7221 8462
7221 8761
7221 9016
7224 9012
7225 7951
7225 9333
7226 9962
7227 8286
7227 9080
7227 9668
7227 9471
7228 7261
7229 7274
7229 9315
7230 8160
7230 9417
7231 8234
7231 8349
7232 8380
7232 9024
7232 9802
7234 8926
7234 8495
7236 7933
7237 7633
7237 8261
7237 8929
7238 8485
7239 7577
7239 8450
7240 7942
7240 7954
7240 8192
7240 9572
7241 7387
7241 7696
7242 8808
7242 9082
7242 9397
7243 7451
7243 9449
7244 7786
7244 9729
7245 8931
7246 7328
7246 9927
7247 7958
7247 8261
7247 9837
7248 7250
7248 7552
7248 8335
7248 9022
7248 9911
7248 9943
7249 9387
7251 8864
7251 9031
7253 7815
7253 8673
7253 8736
7253 8983
7254 9966
7255 7396
7255 9270
7257 8739
7258 7409
7258 7895
7258 8118
7259 7834
7260 9521
7260 9638
7262 8360
7263 8009
7263 9593
7264 9504
7264 9593
7265 7594
7265 9128
7266 8238
7266 9676
7267 7632
7269 8909
7269 9472
7270 8002
7271 8720
7272 7542
7272 8187
7272 8469
7275 9500
7275 9838
7276 8031
7277 8173
7277 9968
7278 7862
7278 9273
7278 9589
7278 9700
7279 9026
7281 7383
7281 8417
7281 9142
7282 7757
7282 8633
7282 8753
7282 9583
7283 8560
7283 8595
7283 8859
7284 9455
7286 8410
7287 7505
7287 7912
7287 8206
7287 8961
7288 7784
7290 9974
7291 7541
7291 7977
7291 8283
7292 8221
7292 9562
7292 9672
7293 9204
7294 8073
7295 9345
7296 9599
7297 9594
7298 7428
7298 8257
7298 8665
7298 9847
7299 7644
7299 7965
7299 8077
7299 8101
7299 8835
7299 8860
7301 7669
7301 8222
7301 8780
7302 7715
7302 9054
7303 8028
7303 9287
7304 7395
7304 8479
7304 8853
7304 9483
7304 9706
7305 7306
7305 8005
7305 8682
7305 9098
7306 7849
7307 8457
7308 9508
7309 9705
7309 9849
7310 7944
7310 9099
7310 9816
7311 8713
7312 8430
7313 9175
7314 8513
7314 8622
7316 7658
7317 7475
7317 8644
7317 8789
7317 9863
7318 9060
7319 9518
7320 8258
7320 8952
7322 9791
7323 8179
7323 8257
7323 9171
7323 9801
7324 8390
7324 9628
7325 7744
7326 9844
7326 8738
7327 7511
7327 7524
7327 7871
7327 8116
7327 8174
7329 8565
7329 8957
7329 9929
7330 7683
7330 7974
7330 9283
7330 9808
7330 9954
7331 8580
7331 9961
7332 8304
7332 8398
7332 8502
7332 8735
7332 9124
7333 8949
7334 9338
7335 7479
7337 9816
7338 7344
7338 9738
7338 9819
7339 9679
7340 8579
7340 8860
7341 8417
7343 9657
7344 7432
7347 8094
7347 9648
7347 9899
7350 9919
7351 7949
7352 9900
7353 9363
7354 7471
7354 8055
7354 8081
7354 9250
7355 8543
7356 7567
7356 8888
7357 7605
7357 8908
7358 7953
7358 8347
7358 9651
7358 9971
7359 7846
7360 7696
7360 8884
7360 9062
7360 9962
7361 7814
7361 7944
7362 7458
7362 9014
7362 9237
7362 9508
7363 8027
7365 9493
7367 7690
7368 8009
7369 7850
7369 8807
7370 9698
7370 9902
7371 8519
7371 8573
7371 9904
7372 8196
7372 9611
7373 7578
7373 8851
7373 9219
7374 8025
7374 8932
7375 9295
7375 9996
7376 7658
7376 8212
7376 9297
7377 9722
7378 8395
7379 7652
7379 8024
7379 8677
7380 7505
7380 8992
7381 7382
7382 7850
7383 9199
7383 9995
7384 7731
7386 7453
7386 8873
7386 9792
7389 9118
7390 8096
7390 8163
7390 8643
7391 7759
7391 9198
7392 7841
7393 7806
7394 8107
7395 8063
7396 9234
7397 9591
7397 9615
7398 7872
7399 7985
7399 8025
7399 9720
7400 8602
7400 8752
7400 9137
7400 9186
7401 9587
7403 7727
7403 8778
7403 8999
7403 9188
7405 7824
7408 7668
7408 9166
7409 7422
7409 7524
7409 8427
7409 8527
7412 9008
7412 9795
7413 7496
7414 8669
7415 9904
7416 9261
7416 9482
7417 7955
7417 9758
7418 8053
7418 9331
7420 7843
7420 8585
7421 9573
7422 9310
7423 7907
7423 8341
7424 7431
7428 8205
7428 8282
7429 7760
7429 8940
7429 8986
7429 9728
7430 7570
7431 8785
7432 7958
7432 9656
7432 9732
7433 7931
7435 8739
7435 8756
7435 9507
7436 8046
7437 7807
7437 8035
7438 9127
7441 8068
7441 8489
7441 8738
7443 9835
7444 7633
7445 8511
7445 9154
7445 9211
7446 8643
7446 8736
7447 8534
7447 9507
7449 7961
7450 9336
7450 9817
7451 7771
7452 7709
7452 7842
7452 9402
7452 9415
7452 9633
7453 8920
7454 9212
7455 8154
7455 8237
7455 9684
7456 8618
7457 8307
7457 9865
7458 7932
7458 8696
7458 8953
7458 9681
7459 7575
7459 8285
7462 7615
7462 8387
7463 8796
7463 8875
7463 8965
7464 7645
7465 8861
7465 9579
7465 9694
7466 7873
7467 8409
7467 8714
7467 8768
7467 9936
7468 7561
7468 9578
7469 7721
7470 8456
7470 9179
7470 9634
7471 7812
7471 8385
7471 9836
7471 9888
7472 8980
7473 9437
7474 7546
7476 9211
7478 9672
7480 8023
7480 8605
7481 7911
7481 8757
7481 9445
7482 9420
7482 9784
7484 8074
7484 8781
7484 9604
7485 8127
7485 9767
7486 9537
7486 9729
7487 7890
7487 9848
7488 7780
7489 9677
7489 9875
7489 9951
7490 8476
7490 9160
7491 8128
7491 8666
7492 7555
7493 9242
7494 7508
7494 7791
7494 9017
7494 9340
7495 8160
7495 8795
7495 9696
7495 9730
7497 7620
7497 8226
7498 7836
7500 8470
7501 8509
7502 8715
7502 8959
7503 8214
7504 8189
7504 9471
7508 8328
7508 9864
7509 7882
7509 8621
7510 8747
7511 8081
7511 8426
7511 8909
7512 7582
7512 8022
7514 8313
7514 9919
7516 8947
7516 9162
7516 9321
7517 7773
7518 9882
7519 9204
7520 8642
7521 8189
7524 8202
7524 8788
7525 8151
7525 8598
7526 7589
7526 8183
7528 7682
7528 7695
7528 9745
7529 7549
7530 7841
7530 8359
7530 9282
7532 7744
7532 8007
7532 8819
7532 8963
7532 9840
7533 9715
7534 9537
7535 8385
7536 8300
7536 8478
7537 8368
7537 8907
7538 9468
7543 9059
7544 8216
7544 9122
7545 8884
7546 7782
7546 7879
7546 9412
7547 8225
7549 8706
7549 9082
7549 9835
7549 9840
7550 7570
7550 7998
7550 9059
7551 7816
7551 8571
7551 8941
7551 9235
7552 9722
7553 7756
7554 9587
7555 9758
7557 7778
7557 8249
7557 9446
7558 7723
7560 7703
7560 9984
7561 7828
7561 8385
7562 8698
7564 9920
7565 8069
7565 8897
7565 9036
7565 9350
7565 9609
7566 8099
7566 8484
7566 9105
7566 9296
7567 8275
7568 7747
7568 9321
7568 9803
7569 7869
7569 8337
7571 8977
7573 9373
7574 7756
7574 8166
7577 7844
7578 8258
7579 8349
7579 9938
7581 8088
7582 8513
7583 7662
7583 7935
7583 8941
7583 9328
7584 7980
7584 8846
7585 7598
7585 8197
7585 8559
7585 9041
7585 9382
7585 9739
7586 9883
7587 8073
7587 8540
7587 8866
7587 9072
7587 9369
7589 7603
7589 7850
7589 8143
7590 9233
7591 7922
7592 7598
7592 9920
7593 8930
7594 7616
7594 7644
7594 8951
7594 9583
7595 8084
7596 8780
7598 7771
7598 9459
7599 9087
7599 9464
7599 9922
7600 8905
7600 9649
7601 7645
7602 8333
7602 9987
7603 8886
7606 8622
7606 8750
7606 9947
7607 9910
7609 9178
7611 9332
7612 7726
7613 8659
7615 8609
7616 8188
7616 8495
7618 8508
7618 9371
7618 9410
7619 8531
7620 7721
7621 8090
7621 9231
7621 9376
7624 7664
7624 8044
7624 8122
7626 8405
7626 8629
7627 9660
7628 7639
7628 7884
7628 8607
7628 9305
7628 9592
7629 9065
7630 8180
7630 8679
7630 9526
7630 9800
7631 7994
7631 8305
7631 8582
7631 8725
7631 8878
7631 9043
7632 7668
7632 7738
7632 8068
7632 8213
7632 8269
7632 8404
7633 8107
7634 9780
7635 8485
7636 7735
7636 9440
7637 9648
7638 7657
7638 8458
7638 8469
7639 8446
7640 7803
7640 8809
7641 9246
7641 9911
7642 8602
7642 9374
7643 7714
7643 9659
7644 7919
7645 8344
7645 8471
7646 8336
7646 9027
7647 9166
7647 9303
7648 8315
7648 9506
7652 8333
7652 8626
7652 8758
7652 8760
7652 8835
7652 8883
7652 9281
7655 7663
7655 8100
7655 9745
7657 8465
7657 9375
7657 9913
7659 9903
7660 7686
7660 9557
7661 8030
7661 8350
7661 9407
7662 8242
7662 9845
7663 8112
7663 8442
7665 9464
7665 9863
7666 7799
7666 8734
7666 9211
7666 9306
7667 8938
7668 8768
7669 8016
7670 7863
7670 8128
7671 7829
7671 7999
7671 8166
7671 9442
7673 8392
7674 8185
7674 9098
7675 8820
7675 9354
7675 9469
7675 9559
7675 9610
7676 8345
7676 9744
7678 8449
7678 9876
7679 7833
7681 7694
7681 8038
7681 8814
7682 8158
7683 8713
7683 8877
7686 7889
7686 8915
7688 8741
7688 8991
7688 9674
7688 9861
7689 8343
7689 8515
7690 9944
7691 8460
7691 9153
7692 8659
7692 8789
7692 9425
7692 9927
7693 8360
7695 9000
7696 8591
7698 9362
7698 9685
7698 9760
7699 8570
7699 9070
7700 9207
7700 9735
7702 9173
7702 9736
7703 7713
7703 8945
7703 9539
7706 9553
7707 8938
7708 7921
7709 9058
7709 9342
7710 7711
7711 8262
7711 8610
7711 9662
7711 9819
7712 7751
7712 9608
7712 9852
7713 9906
7714 7837
7715 8734
7716 8231
7717 9109
7717 9349
7718 9779
7719 8906
7720 9224
7723 8777
7723 9409
7723 9597
7724 9770
7725 7853
7725 8370
7726 8882
7728 7914
7728 8160
7730 9302
7731 8061
7732 9461
7733 9418
7734 8509
7734 9554
7735 8315
7736 9511
7737 8223
7737 9599
7739 7961
7739 9099
7741 8153
7741 8235
7741 8811
7741 9064
7741 9544
7741 9799
7742 8184
7742 8495
7742 8991
7742 9399
7742 9652
7744 8937
7746 8701
7748 8667
7749 8483
7749 9941
7750 8512
7751 8065
7752 8294
7752 9236
7752 9255
7753 8561
7754 7975
7754 8337
7754 9165
7756 7827
7756 8318
7756 8883
7756 8932
7757 9324
7757 9526
7757 9731
7758 7827
7758 9480
7762 7865
7763 7827
7763 8247
7765 8227
7765 8441
7767 9865
7768 7915
7769 8550
7769 9798
7771 9653
7771 9906
7773 9287
7774 9561
7775 7899
7775 8083
7775 9073
7775 9254
7776 7790
7777 7798
7778 8649
7779 9841
7780 9018
7780 9161
7781 8113
7782 7871
7785 9654
7786 8761
7786 9998
7788 9366
7789 9430
7790 8551
7790 8948
7790 9566
7790 9927
7794 8204
7795 9067
7795 9171
7796 8372
7796 9700
7798 8375
7798 9004
7798 9356
7800 7962
7800 8793
7800 9609
7802 9905
7803 9823
7804 9609
7805 9894
7806 9340
7806 9936
7807 7857
7807 8327
7807 8392
7807 9509
7809 8612
7809 9202
7809 9444
7812 8314
7812 8708
7812 9174
7813 7884
7813 8585
7813 8890
7813 9618
7814 8059
7814 8143
7814 8456
7814 9011
7816 8822
7817 8786
7819 8720
7820 8539
7820 9923
7821 9001
7821 9692
7823 8283
7823 9140
7824 9064
7825 8267
7826 7907
7826 8582
7826 9160
7826 9951
7827 8694
7827 9466
7827 9770
7832 8402
7833 8065
7835 8304
7835 8986
7836 7919
7838 8068
7838 8356
7838 8436
7838 9409
7839 9226
7839 9653
7840 7919
7841 7871
7841 8252
7841 9130
7841 9497
7845 9631
7845 9987
7848 8197
7848 8420
7848 9880
7849 8862
7850 9384
7850 9780
7851 8831
7852 8154
7853 8660
7853 8855
7854 8130
7854 8475
7855 7996
7861 9247
7861 9828
7862 9702
7862 9729
7863 8068
7863 8256
7866 8793
7866 9299
7867 8399
7867 8673
7867 8938
7868 7917
7868 8368
7868 9090
7869 8116
7870 8090
7870 8408
7871 9944
7871 9969
7873 8154
7873 9092
7873 9176
7875 9190
7876 9141
7877 7933
7877 9256
7878 8348
7878 9362
7879 7935
7879 9113
7879 9950
7880 7966
7880 9028
7882 9021
7882 9137
7882 9537
7882 9892
7882 9935
7883 8212
7883 8661
7883 8985
7884 8811
7886 9008
7887 8814
7888 8637
7888 9353
7889 8644
7889 9573
7890 9845
7891 8672
7892 8190
7893 9733
7894 8610
7894 9600
7894 9715
7896 9142
7898 7908
7899 8352
7899 9188
7900 8224
7900 8646
7900 8803
7901 8013
7901 9174
7902 8294
7904 8591
7905 8004
7908 8804
7908 9035
7910 8568
7912 9142
7913 7984
7913 8011
7913 8557
7916 9300
7917 9036
7917 9627
7921 8887
7921 9414
7922 8492
7922 8516
7923 8746
7923 8832
7923 9970
7924 8933
7925 9612
7928 9109
7932 9997
7933 8768
7933 9980
7935 8416
7935 8462
7935 9620
7936 8298
7936 8339
7938 8523
7939 7988
7940 8254
7940 8391
7940 9048
7941 8280
7944 7987
7944 9059
7944 9319
7944 9701
7947 8837
7947 8978
7948 9197
7948 9199
7948 9895
7952 8730
7953 8858
7953 9578
7954 8371
7957 9060
7957 9897
7958 9852
7960 8038
7960 8244
7960 8388
7960 9628
7962 8533
7962 9007
7962 9240
7963 9800
7964 8543
7964 9375
7964 9717
7965 9781
7968 9071
7968 9215
7970 8024
7972 7975
7974 8443
7974 8634
7974 8798
7976 8496
7976 9531
7976 9866
7977 8538
7977 9119
7979 8514
7979 8695
7981 8620
7981 9396
7981 9836
7982 8859
7982 9884
7983 8581
7984 8488
7984 9285
7985 9349
7986 8835
7986 9234
7988 8455
7989 9314
7990 9056
7991 9208
7992 8015
7992 8513
7992 8784
7992 8871
7992 9233
7993 8253
7993 8389
7995 8250
7995 9373
7996 8496
7996 8848
7996 9060
7996 9315
7997 8161
7997 8321
7997 8746
7998 8444
7999 8218
8000 9355
8001 9280
8001 9815
8002 9674
8005 9827
8006 9907
8007 8173
8007 8213
8009 8564
8009 9300
8009 9943
8012 8384
8012 8672
8014 8638
8015 9643
8018 8371
8019 8822
8020 9526
8021 8196
8022 8164
8023 8918
8023 8980
8023 9968
8024 9793
8025 9505
8027 8356
8030 8429
8030 9367
8032 9015
8033 9542
8037 8491
8038 8741
8038 8890
8038 9031
8039 9964
8041 9208
8041 9326
8042 9039
8043 8548
8045 9348
8046 9646
8047 8442
8047 8933
8047 9313
8048 8736
8048 9614
8049 9201
8051 9080
8051 9103
8052 9280
8053 9915
8054 9744
8054 9782
8056 9143
8057 9386
8058 8242
8058 8596
8060 9960
8062 8110
8062 9163
8063 9170
8063 9757
8064 8421
8064 8907
8064 9290
8065 8409
8068 8761
8068 9213
8071 8742
8072 8117
8073 8257
8074 8508
8075 8377
8075 9561
8076 8204
8076 9961
8079 8713
8080 8176
8080 8754
8080 9289
8083 9020
8084 8780
8084 8965
8085 8921
8086 8655
8086 8870
8087 9274
8087 9310
8089 8098
8092 8453
8092 8590
8092 9247
8093 8208
8093 9149
8094 8633
8095 8611
8095 9363
8096 9011
8096 9056
8097 9413
8099 8297
8099 8415
8099 9191
8104 8443
8104 9298
8105 8284
8107 8370
8109 9370
8110 9969
8111 9120
8111 9421
8113 8870
8115 9480
8115 9802
8116 9749
8118 8563
8119 8869
8120 8317
8123 8124
8124 9704
8125 9447
8125 9211
8128 9217
8128 9863
8130 8241
8130 8587
8131 8237
8131 8395
8132 8672
8132 9376
8134 8497
8134 9026
8134 9480
8135 9258
8136 8264
8137 8256
8137 8611
8138 9036
8139 9965
8141 8856
8141 8982
8141 9100
8141 9184
8142 9644
8143 9690
8143 9990
8146 9975
8147 9207
8148 8479
8148 9388
8148 9772
8148 9908
8149 9111
8149 9728
8151 9141
8151 9998
8152 9117
8152 9443
8154 8523
8156 9802
8159 9590
8160 8930
8160 9233
8161 8628
8163 8378
8163 8927
8163 9143
8164 8902
8168 8383
8168 8786
8171 9921
8172 9392
8174 8512
8175 8528
8177 8367
8177 8396
8177 9386
8177 9976
8182 8602
8182 9532
8183 9480
8184 9009
8188 8664
8188 9613
8189 8523
8190 8879
8190 8881
8191 9602
8192 8906
8193 8902
8193 9184
8193 9777
8194 8656
8195 9794
8196 8694
8196 8781
8197 8493
8199 9779
8200 8674
8200 8755
8201 8329
8201 8385
8201 9153
8201 9660
8202 8961
8202 9605
8203 9840
8204 8695
8204 8950
8205 8712
8205 8835
8205 9320
8205 9630
8206 9413
8206 9915
8207 9198
8208 9469
8209 9873
8210 9439
8211 9642
8212 8600
8212 9217
8212 9416
8213 8478
8213 8756
8213 9867
8214 8599
8215 8470
8216 8609
8216 8745
8219 9637
8220 8661
8221 8875
8222 8418
8222 8475
8223 8551
8224 9860
8225 8917
8225 9770
8227 8266
8227 9660
8229 9092
8230 9242
8231 9446
8232 9485
8233 8482
8235 8937
8237 8716
8239 9026
8239 9235
8240 9512
8240 9528
8241 8543
8241 9558
8242 9583
8244 8268
8245 9326
8246 8792
8247 9560
8249 8276
8250 8256
8251 9144
8251 9620
8254 8741
8254 9746
8254 9971
8256 8486
8256 9105
8256 9654
8256 9898
8257 8844
8258 8942
8258 9124
8259 8664
8259 9526
8259 9725
8260 8382
8260 8652
8260 9207
8260 9937
8263 9181
8264 8482
8266 8439
8266 9104
8266 9571
8267 8619
8267 9026
8267 9919
8268 8451
8269 8465
8270 8989
8271 8778
8271 9165
8271 9250
8272 9059
8272 9295
8272 9807
8275 8863
8275 9279
8275 9390
8275 9679
8277 9020
8277 9597
8278 8979
8279 9146
8279 9589
8282 8398
8282 8795
8283 8362
8285 9925
8287 9623
8288 8883
8288 9060
8289 9964
8290 8995
8291 9842
8293 8965
8293 9726
8293 9925
8296 8402
8296 9569
8297 8379
8297 8413
8297 9138
8299 8935
8301 8316
8301 8375
8301 8465
8302 9738
8303 8365
8303 8901
8304 9771
8304 9818
8305 9458
8307 9481
8309 8465
8309 8626
8309 9908
8310 8445
8310 8960
8314 9244
8316 8657
8316 9568
8318 9318
8320 8607
8323 8626
8324 8570
8324 9020
8324 9306
8325 8348
8325 9779
8327 9070
8327 9472
8328 8797
8329 9435
8329 9470
8329 9630
8330 8587
8330 8678
8331 9640
8331 9864
8332 8898
8339 8450
8339 9025
8339 9836
8344 8412
8344 8867
8345 9706
8347 9198
8347 9799
8349 9408
8350 8574
8350 8973
8352 9515
8352 9550
8354 9487
8354 9717
8355 8427
8355 9449
8356 9312
8357 8755
8357 9905
8358 9318
8359 8475
8360 8436
8360 9750
8362 8994
8362 9343
8362 9917
8364 8963
8366 8621
8366 9468
8367 9223
8368 9953
8369 9068
8369 9148
8370 8414
8370 8462
8370 8636
8371 8438
8371 8965
8371 9050
8371 9454
8375 8959
8378 9253
8378 8613
8380 8420
8380 8922
8380 9274
8380 9818
8384 9635
8384 9834
8388 8948
8389 9545
8389 9857
8390 9169
8390 9452
8391 9414
8392 9026
8392 9033
8392 9844
8395 9172
8396 8655
8396 8801
8396 8975
8397 9584
8399 8400
8404 9301
8405 8977
8405 9637
8406 9595
8408 9105
8408 9764
8409 9830
8410 8674
8411 9778
8413 8957
8413 9884
8414 8478
8419 9754
8420 9536
8421 8676
8421 8772
8421 9889
8424 8823
8426 8490
8432 8831
8433 9846
8434 8800
8435 8996
8435 9314
8435 9825
8436 9208
8437 9119
8442 9412
8445 8513
8447 9257
8448 8765
8448 9624
8449 9748
8450 9670
8452 9756
8453 8980
8455 8472
8456 9703
8459 8793
8460 9649
8462 9391
8463 9044
8463 9190
8463 9370
8463 9445
8463 9813
8463 9857
8464 9771
8465 8961
8465 9279
8466 8846
8467 8708
8468 9765
8471 8724
8471 8918
8472 8478
8473 9689
8475 9969
8477 9286
8477 9939
8478 8979
8479 8682
8479 9354
8480 9043
8480 9433
8484 8679
8484 9994
8487 9474
8487 9610
8490 9113
8490 9591
8493 9699
8494 9626
8495 9655
8496 8951
8499 8600
8499 9433
8502 8515
8503 8635
8503 9260
8504 8538
8504 9050
8504 9155
8506 9388
8506 9805
8508 9813
8510 9688
8513 9135
8513 9458
8516 9113
8517 9295
8518 9165
8518 9226
8518 9868
8521 8979
8521 8986
8526 8565
8526 9346
8527 8604
8527 8641
8527 9784
8529 9366
8529 9974
8530 8900
8530 8906
8530 8921
8533 8536
8534 9786
8534 9900
8536 8797
8536 8811
8536 8916
8537 9296
8538 9148
8540 9682
8545 9684
8547 9647
8548 8689
8548 8912
8549 8719
8550 8767
8551 9395
8553 8737
8553 9531
8556 9775
8557 8889
8561 9042
8561 9120
8561 9475
8563 8595
8564 9157
8565 8599
8565 9253
8565 9272
8566 8950
8567 8778
8568 8976
8571 8912
8571 9756
8572 9265
8574 8730
8574 8731
8577 9548
8578 8627
8578 8883
8578 8990
8579 9661
8580 8870
8583 9115
8583 9413
8583 9555
8584 8771
8585 9698
8586 9032
8586 9445
8589 9648
8589 9784
8590 9294
8590 9452
8590 9615
8591 9962
8592 8977
8592 9730
8594 9047
8597 9636
8599 8936
8603 9127
8604 9585
8606 8809
8606 9614
8607 9848
8608 9812
8609 9618
8613 9509
8615 9263
8615 9748
8615 9767
8616 8797
8616 9497
8617 9760
8618 9085
8618 9911
8619 8915
8619 9071
8619 9694
8619 9727
8621 9982
8624 9483
8625 8945
8625 9774
8626 8946
8627 9539
8632 9543
8632 9830
8634 9416
8634 9432
8634 9762
8635 9369
8636 9918
8638 8941
8641 9622
8642 8680
8642 8747
8643 8711
8643 8863
8643 9442
8643 9446
8643 9758
8646 9704
8647 8989
8647 9311
8647 9667
8649 9333
8651 9061
8654 9647
8656 9667
8657 9214
8659 9492
8662 8688
8662 9814
8663 8875
8663 9037
8664 9429
8666 8682
8671 9027
8672 9006
8674 8756
8675 8989
8678 9809
8679 8718
8679 8865
8680 8687
8680 8836
8680 9007
8680 9925
8682 9359
8682 9928
8682 9983
8686 9006
8688 9055
8689 9557
8690 8917
8690 9768
8692 9874
8693 9036
8693 9977
8697 9536
8698 9211
8698 9824
8700 9649
8706 9839
8713 8760
8713 9173
8713 9456
8713 9708
8713 9815
8713 9878
8715 8888
8716 8868
8719 9900
8720 8727
8720 8801
8720 9359
8720 9910
8721 9610
8721 9718
8723 8803
8725 8922
8730 9309
8731 9256
8732 9084
8732 9208
8735 9866
8738 9039
8739 9283
8740 9472
8749 9080
8750 9220
8750 9856
8750 9924
8752 9160
8754 8980
8758 9081
8762 9593
8762 9911
8763 8933
8767 9613
8769 9351
8769 9577
8771 9457
8777 8874
8778 9639
8778 9810
8779 9444
8779 9707
8780 9197
8781 9351
8781 9485
8781 9923
8782 8881
8786 9549
8789 9037
8790 9498
8793 8869
8793 9823
8794 9019
8794 9511
8794 9819
8795 9157
8795 9297
8799 9840
8802 9360
8802 9773
8803 8989
8806 9139
8808 9456
8808 9561
8808 9638
8809 9335
8809 9863
8810 9231
8810 9808
8811 8969
8811 9200
8815 9922
8815 9992
8816 9639
8817 9206
8817 9920
8819 8973
8820 9118
8820 9735
8821 9504
8822 9104
8826 8893
8826 8967
8826 9374
8828 9972
8830 9968
8831 9614
8832 9076
8832 9976
8832 9999
8833 9006
8834 9364
8834 9810
8835 8917
8838 9032
8838 9716
8839 9344
8840 9047
8843 9884
8844 8962
8844 9660
8845 9012
8849 8853
8850 8939
8850 9003
8850 9028
8850 9673
8851 9463
8859 9162
8861 9395
8861 9528
8861 9762
8861 9905
8862 9358
8863 9757
8864 8993
8864 9116
8867 9280
8869 8887
8872 9510
8873 9417
8876 9638
8878 9173
8880 8976
8882 9509
8883 9785
8885 9963
8891 9685
8891 9740
8892 9913
8893 8956
8896 9968
8898 9371
8898 9426
8902 9528
8903 9380
8905 9677
8906 8946
8907 9051
8908 8956
8908 9262
8911 9147
8911 9248
8912 8978
8912 9636
8913 9502
8913 9765
8914 9445
8914 9936
8918 9228
8925 9631
8926 9802
8928 9054
8933 8957
8933 9812
8934 9089
8934 9633
8936 9685
8943 9282
8943 9583
8950 9086
8955 9065
8955 9307
8957 9441
8959 9247
8959 9956
8961 9761
8962 8984
8963 9107
8963 9656
8965 9749
8967 9916
8968 9760
8970 9229
8970 9291
8970 9491
8971 9749
8974 9033
8979 9702
8979 9845
8979 9864
8980 9187
8980 9798
8981 9195
8986 9098
8987 9183
8988 9083
8989 9834
8990 9108
8990 9954
8992 9673
8992 9911
8994 9905
8997 9571
8999 9870
9000 9486
9000 9964
9001 9842
9002 9264
9004 9142
9005 9182
9005 9767
9009 9859
9010 9294
9011 9126
9012 9686
9013 9261
9014 9883
9015 9462
9016 9681
9016 9953
9017 9683
9021 9096
9022 9853
9026 9558
9027 9405
9027 9458
9028 9418
9030 9359
9030 9378
9032 9894
9034 9927
9035 9634
9038 9482
9040 9649
9040 9871
9041 9627
9046 9481
9047 9483
9049 9449
9049 9790
9057 9461
9059 9299
9060 9960
9061 9597
9068 9604
9068 9696
9069 9312
9069 9912
9073 9937
9075 9700
9076 9915
9078 9779
9079 9344
9080 9865
9081 9540
9082 9746
9083 9569
9088 9664
9091 9659
9094 9474
9095 9623
9097 9645
9100 9605
9106 9444
9109 9777
9110 9855
9111 9368
9111 9500
9111 9886
9113 9541
9115 9919
9120 9375
9121 9125
9121 9906
9122 9796
9125 9185
9129 9976
9132 9986
9134 9709
9135 9160
9136 9326
9136 9679
9137 9778
9139 9826
9140 9650
9148 9380
9149 9391
9154 9235
9155 9533
9157 9329
9159 9285
9160 9400
9160 9687
9160 9803
9166 9944
9168 9273
9171 9347
9177 9642
9178 9615
9181 9904
9182 9327
9185 9636
9187 9679
9188 9458
9189 9981
9194 9572
9204 9357
9204 9699
9204 9814
9210 9751
9211 9734
9215 9718
9216 9711
9216 9840
9218 9678
9220 9751
9221 9878
9221 9994
9222 9703
9223 9776
9227 9389
9228 9933
9229 9631
9236 9941
9237 9629
9238 9355
9242 9415
9242 9810
9247 9406
9255 9321
9255 9558
9262 9698
9265 9403
9265 9601
9268 9400
9269 9324
9276 9501
9278 9361
9280 9800
9280 9804
9281 9737
9283 9706
9284 9479
9285 9500
9289 9646
9290 9310
9290 9476
9292 9555
9297 9401
9298 9825
9299 9417
9299 9952
9301 9816
9304 9765
9308 9359
9311 9404
9318 9581
9320 9621
9321 9419
9325 9896
9326 9917
9330 9618
9333 9980
9337 9585
9338 9476
9344 9863
9357 9740
9367 9912
9368 9919
9374 9382
9376 9413
9378 9496
9384 9519
9387 9724
9389 9761
9390 9451
9391 9592
9391 9648
9391 9962
9393 9693
9394 9685
9394 9837
9394 9984
9396 9881
9403 9968
9416 9669
9423 9836
9424 9486
9433 9507
9435 9831
9437 9663
9439 9703
9442 9880
9445 9669
9445 9760
9446 9584
9448 9689
9450 9619
9450 9912
9452 9503
9469 9801
9473 9485
9473 9779
9478 9768
9484 9681
9488 9576
9488 9926
9489 9851
9491 9742
9492 9645
9497 9557
9500 9961
9501 9813
9504 9883
9517 9650
9531 9953
9534 9577
9534 9636
9540 9624
9543 9985
9544 9935
9546 9655
9547 9783
9556 9842
9562 9603
9562 9917
9562 9985
9564 9999
9568 9880
9578 9870
9578 9928
9580 9855
9581 9966
9588 9709
9591 9888
9596 9628
9597 9924
9613 9614
9615 9766
9616 9670
9616 9995
9623 9711
9623 9968
9627 9874
9628 9835
9635 9916
9637 9802
9642 9691
9643 9800
9648 9671
9651 9841
9654 9887
9661 9754
9662 9988
9667 9748
9671 9710
9674 9854
9675 9830
9678 9902
9682 9817
9682 9857
9688 9798
9697 9715
9724 9940
9729 9921
9730 9766
9744 9984
9746 9955
9786 9829
9790 9925
9811 9927
9821 9870
9824 9950
9843 9997
9896 9937
9899 9958
9911 9938
9912 9940
9924 9960
